 C  O Si 
 1.0000000000000000
    60.4033124479213654    0.0000000000000000    0.0000000000000000
     0.0000000000000000   62.7729636631544423    0.0000000000000000
     0.0000000000000000    0.0000000000000000  105.9558582250327277
 C   O   Si 
 30660 3600 3960
Direct
 -0.0000000000000000  0.0222222222222222  0.0155296480325689
  0.7600000000000000  0.1555555555555555  0.5062196687342732
  0.7600000000000000  0.2222222222222222  0.5062196687342732
  0.6600000000000000  0.1444444444444443  0.5062196687342732
  0.7799999999999997  0.0111111111111111  0.5062196687342732
  0.6600000000000000  0.1888888888888889  0.5062196687342732
  0.7600000000000000  0.3111111111111111  0.5062196687342732
  0.7400000000000001  0.3222222222222221  0.5062196687342732
  0.7799999999999998  0.2777777777777778  0.5062196687342732
  0.7600000000000000  0.2888888888888887  0.5062196687342732
  0.6000000000000001  0.2444444444444444  0.5062196687342732
  0.7799999999999998  0.2555555555555554  0.5062196687342732
  0.6200000000000000  0.2111111111111111  0.5062196687342732
  0.6000000000000001  0.2222222222222222  0.5062196687342732
  0.6400000000000001  0.1777777777777777  0.5062196687342732
  0.6200000000000000  0.1888888888888889  0.5062196687342732
  0.4000000000000000  0.6222222222222221  0.5062196687342732
  0.7000000000000001  0.3222222222222221  0.5062196687342732
  0.7400000000000001  0.2777777777777777  0.5062196687342732
  0.7200000000000000  0.2888888888888887  0.5062196687342732
  0.7600000000000000  0.2444444444444444  0.5062196687342732
  0.7400000000000001  0.2555555555555554  0.5062196687342732
  0.6799999999999998  0.1777777777777777  0.5062196687342732
  0.6000000000000001  0.3777777777777777  0.5062196687342732
  0.7600000000000001  0.4222222222222219  0.5062196687342732
  0.7799999999999998  0.4111111111111110  0.5062196687342732
  0.7799999999999998  0.1222222222222222  0.5062196687342732
  0.6200000000000000  0.0777777777777778  0.5062196687342732
  0.6000000000000001  0.0888888888888889  0.5062196687342732
  0.7600000000000001  0.0222222222222222  0.5062196687342732
  0.6600000000000000  0.3888888888888887  0.5062196687342732
  0.6799999999999997  0.3777777777777777  0.5062196687342732
  0.6400000000000001  0.4222222222222220  0.5062196687342732
  0.6600000000000000  0.4111111111111110  0.5062196687342732
  0.6200000000000000  0.4555555555555553  0.5062196687342732
  0.6400000000000001  0.4444444444444443  0.5062196687342732
  0.6000000000000000  0.4888888888888887  0.5062196687342732
  0.6200000000000000  0.4777777777777776  0.5062196687342732
  0.7200000000000000  0.3555555555555553  0.5062196687342732
  0.7400000000000001  0.3444444444444444  0.5062196687342732
  0.7000000000000001  0.3888888888888887  0.5062196687342732
  0.7200000000000000  0.3777777777777777  0.5062196687342732
  0.7400000000000001  0.4555555555555553  0.5062196687342732
  0.6799999999999998  0.4222222222222220  0.5062196687342732
  0.6600000000000000  0.4555555555555553  0.5062196687342732
  0.6799999999999998  0.4444444444444443  0.5062196687342732
  0.6799999999999998  0.3555555555555553  0.5062196687342732
  0.6400000000000001  0.4888888888888887  0.5062196687342732
  0.7799999999999998  0.4777777777777775  0.5062196687342732
  0.6000000000000001  0.4444444444444443  0.5062196687342732
  0.6000000000000001  0.3555555555555553  0.5062196687342732
  0.6200000000000000  0.3444444444444444  0.5062196687342732
  0.7799999999999998  0.3888888888888887  0.5062196687342732
  0.6400000000000001  0.2444444444444444  0.5062196687342732
  0.6400000000000001  0.2222222222222222  0.5062196687342732
  0.6799999999999997  0.2888888888888887  0.5062196687342732
  0.7000000000000001  0.4111111111111110  0.5062196687342732
  0.7799999999999998  0.3222222222222221  0.5062196687342732
  0.6000000000000000  0.3111111111111111  0.5062196687342732
  0.7400000000000001  0.0555555555555555  0.5062196687342732
  0.6600000000000000  0.3444444444444444  0.5062196687342732
  0.6200000000000000  0.3888888888888887  0.5062196687342732
  0.6400000000000001  0.3777777777777777  0.5062196687342732
  0.6000000000000001  0.4222222222222220  0.5062196687342732
  0.6200000000000000  0.4111111111111110  0.5062196687342732
  0.7799999999999998  0.4555555555555553  0.5062196687342732
  0.7600000000000000  0.4888888888888886  0.5062196687342732
  0.6600000000000000  0.4777777777777776  0.5062196687342732
  0.6200000000000000  0.5222222222222219  0.5062196687342732
  0.7799999999999997  0.3444444444444444  0.5062196687342732
  0.6600000000000000  0.5222222222222219  0.5062196687342732
  0.7600000000000000  0.6444444444444440  0.5062196687342732
  0.6400000000000001  0.3555555555555553  0.5062196687342732
  0.7400000000000001  0.6555555555555552  0.5062196687342732
  0.7600000000000000  0.6222222222222221  0.5062196687342732
  0.6000000000000001  0.5777777777777774  0.5062196687342732
  0.7799999999999998  0.5888888888888885  0.5062196687342732
  0.6200000000000000  0.5444444444444444  0.5062196687342732
  0.6000000000000001  0.5555555555555555  0.5062196687342732
  0.6400000000000001  0.5111111111111108  0.5062196687342732
  0.6400000000000001  0.0444444444444444  0.5062196687342732
  0.6200000000000000  0.0555555555555555  0.5062196687342732
  0.6600000000000000  0.0111111111111111  0.5062196687342732
  0.2800000000000000  0.3555555555555553  0.5062196687342732
  0.2400000000000000  0.6444444444444440  0.5062196687342732
  0.2199999999999999  0.6555555555555551  0.5062196687342732
  0.7799999999999998  0.6111111111111110  0.5062196687342732
  0.6200000000000000  0.2777777777777777  0.5062196687342732
  0.7400000000000001  0.4777777777777775  0.5062196687342732
  0.7600000000000000  0.4444444444444443  0.5062196687342732
  0.7600000000000000  0.0444444444444444  0.5062196687342732
  0.7799999999999998  0.1888888888888889  0.5062196687342732
  0.6600000000000000  0.2111111111111111  0.5062196687342732
  0.7000000000000000  0.1444444444444443  0.5062196687342732
  0.6799999999999998  0.1555555555555556  0.5062196687342732
  0.7200000000000000  0.1111111111111111  0.5062196687342732
  0.7000000000000001  0.1222222222222222  0.5062196687342732
  0.7400000000000001  0.0777777777777778  0.5062196687342732
  0.7200000000000000  0.0888888888888889  0.5062196687342732
  0.7200000000000000  0.6222222222222221  0.5062196687342732
  0.7600000000000000  0.5777777777777774  0.5062196687342732
  0.7400000000000001  0.5888888888888886  0.5062196687342732
  0.7200000000000000  0.4888888888888886  0.5062196687342732
  0.6799999999999998  0.5111111111111108  0.5062196687342732
  0.6400000000000001  0.5555555555555555  0.5062196687342732
  0.6200000000000000  0.5888888888888886  0.5062196687342732
  0.6400000000000001  0.5777777777777774  0.5062196687342732
  0.6000000000000001  0.6222222222222221  0.5062196687342732
  0.6200000000000000  0.6111111111111110  0.5062196687342732
  0.7799999999999998  0.6555555555555552  0.5062196687342732
  0.6000000000000000  0.6444444444444440  0.5062196687342732
  0.7400000000000001  0.3888888888888887  0.5062196687342732
  0.7400000000000001  0.6111111111111110  0.5062196687342732
  0.7000000000000001  0.6555555555555552  0.5062196687342732
  0.7200000000000000  0.6444444444444440  0.5062196687342732
  0.7600000000000000  0.5555555555555555  0.5062196687342732
  0.7600000000000001  0.3555555555555553  0.5062196687342732
  0.6000000000000001  0.2888888888888887  0.5062196687342732
  0.6200000000000000  0.2555555555555554  0.5062196687342732
  0.7600000000000000  0.3777777777777777  0.5062196687342732
  0.4200000000000000  0.5444444444444444  0.5062196687342732
  0.4000000000000000  0.5555555555555555  0.5062196687342732
  0.5399999999999999  0.4111111111111111  0.5062196687342732
  0.4199999999999998  0.6111111111111110  0.5062196687342732
  0.5799999999999997  0.6555555555555552  0.5062196687342732
  0.3999999999999999  0.6444444444444440  0.5062196687342732
  0.5400000000000000  0.3888888888888887  0.5062196687342732
  0.5599999999999999  0.3777777777777777  0.5062196687342732
  0.5799999999999997  0.5222222222222219  0.5062196687342732
  0.4600000000000000  0.5444444444444444  0.5062196687342732
  0.4999999999999997  0.4777777777777776  0.5062196687342732
  0.4800000000000000  0.4888888888888887  0.5062196687342732
  0.5799999999999997  0.5888888888888885  0.5062196687342732
  0.5199999999999999  0.4444444444444443  0.5062196687342732
  0.5200000000000000  0.4222222222222220  0.5062196687342732
  0.4399999999999999  0.5111111111111108  0.5062196687342732
  0.4200000000000000  0.5888888888888886  0.5062196687342732
  0.4399999999999999  0.5555555555555555  0.5062196687342732
  0.5599999999999999  0.3555555555555553  0.5062196687342732
  0.4800000000000000  0.5111111111111108  0.5062196687342732
  0.5400000000000000  0.5888888888888886  0.5062196687342732
  0.5599999999999999  0.5777777777777774  0.5062196687342732
  0.5199999999999999  0.6222222222222221  0.5062196687342732
  0.5400000000000000  0.6111111111111110  0.5062196687342732
  0.4999999999999999  0.6555555555555552  0.5062196687342732
  0.5199999999999999  0.6444444444444440  0.5062196687342732
  0.4999999999999999  0.4555555555555553  0.5062196687342732
  0.4199999999999998  0.5222222222222219  0.5062196687342732
  0.3799999999999999  0.7888888888888885  0.5062196687342732
  0.3599999999999999  0.8222222222222220  0.5062196687342732
  0.3799999999999999  0.9444444444444441  0.5062196687342732
  0.3399999999999999  0.9888888888888885  0.5062196687342732
  0.3000000000000000  0.8555555555555552  0.5062196687342732
  0.2000000000000000  0.7555555555555554  0.5062196687342732
  0.4000000000000000  0.5777777777777774  0.5062196687342732
  0.5599999999999999  0.6222222222222221  0.5062196687342732
  0.5799999999999997  0.6111111111111110  0.5062196687342732
  0.5400000000000000  0.6555555555555552  0.5062196687342732
  0.5599999999999999  0.6444444444444440  0.5062196687342732
  0.4600000000000000  0.5222222222222219  0.5062196687342732
  0.5799999999999997  0.3444444444444444  0.5062196687342732
  0.4600000000000000  0.4777777777777776  0.5062196687342732
  0.9000000000000000  0.8555555555555552  0.5062196687342732
  0.5599999999999999  0.5555555555555555  0.5062196687342732
  0.5799999999999997  0.4555555555555553  0.5062196687342732
  0.4200000000000000  0.4111111111111110  0.5062196687342732
  0.4000000000000000  0.4222222222222220  0.5062196687342732
  0.4399999999999999  0.3777777777777777  0.5062196687342732
  0.4199999999999998  0.3888888888888887  0.5062196687342732
  0.4600000000000000  0.3444444444444444  0.5062196687342732
  0.4399999999999999  0.3555555555555553  0.5062196687342732
  0.3600000000000000  0.9777777777777773  0.5062196687342732
  0.2600000000000000  0.8555555555555552  0.5062196687342732
  0.3799999999999999  0.6777777777777777  0.5062196687342732
  0.2600000000000000  0.8111111111111107  0.5062196687342732
  0.3600000000000000  0.8888888888888885  0.5062196687342732
  0.5599999999999999  0.4888888888888886  0.5062196687342732
  0.2600000000000000  0.6111111111111110  0.5062196687342732
  0.2199999999999999  0.7444444444444441  0.5062196687342732
  0.3200000000000000  0.8444444444444440  0.5062196687342732
  0.2600000000000000  0.6777777777777777  0.5062196687342732
  0.2400000000000000  0.6888888888888888  0.5062196687342732
  0.3399999999999999  0.8111111111111107  0.5062196687342732
  0.3200000000000000  0.8222222222222220  0.5062196687342732
  0.3600000000000000  0.7777777777777773  0.5062196687342732
  0.3399999999999999  0.7888888888888884  0.5062196687342732
  0.3800000000000000  0.7444444444444440  0.5062196687342732
  0.3600000000000000  0.7555555555555554  0.5062196687342732
  0.2000000000000000  0.7111111111111107  0.5062196687342732
  0.3800000000000000  0.7222222222222218  0.5062196687342732
  0.2199999999999999  0.6777777777777776  0.5062196687342732
  0.2000000000000000  0.7777777777777773  0.5062196687342732
  0.2000000000000000  0.6888888888888888  0.5062196687342732
  0.2199999999999999  0.8111111111111107  0.5062196687342732
  0.2400000000000000  0.8222222222222221  0.5062196687342732
  0.2800000000000000  0.6888888888888888  0.5062196687342732
  0.2800000000000000  0.7777777777777773  0.5062196687342732
  0.2599999999999999  0.7888888888888884  0.5062196687342732
  0.3000000000000000  0.7444444444444441  0.5062196687342732
  0.2800000000000000  0.7555555555555554  0.5062196687342732
  0.3200000000000000  0.7111111111111107  0.5062196687342732
  0.3000000000000000  0.7222222222222219  0.5062196687342732
  0.3399999999999999  0.6777777777777777  0.5062196687342732
  0.3200000000000000  0.6888888888888888  0.5062196687342732
  0.6799999999999997  0.3111111111111111  0.5062196687342732
  0.7000000000000001  0.2777777777777777  0.5062196687342732
  0.3799999999999999  0.8111111111111107  0.5062196687342732
  0.2400000000000000  0.7111111111111107  0.5062196687342732
  0.2000000000000000  0.8222222222222221  0.5062196687342732
  0.2199999999999999  0.7888888888888885  0.5062196687342732
  0.2199999999999999  0.7222222222222219  0.5062196687342732
  0.2600000000000000  0.7444444444444441  0.5062196687342732
  0.2400000000000000  0.7555555555555554  0.5062196687342732
  0.2800000000000000  0.7111111111111107  0.5062196687342732
  0.2600000000000000  0.7222222222222218  0.5062196687342732
  0.3000000000000000  0.6777777777777777  0.5062196687342732
  0.3799999999999999  0.8777777777777774  0.5062196687342732
  0.2000000000000000  0.8444444444444440  0.5062196687342732
  0.3399999999999999  0.8555555555555552  0.5062196687342732
  0.3200000000000000  0.8888888888888885  0.5062196687342732
  0.2600000000000000  0.9222222222222218  0.5062196687342732
  0.2400000000000000  0.9555555555555552  0.5062196687342732
  0.2400000000000000  0.7777777777777773  0.5062196687342732
  0.2600000000000000  0.9444444444444440  0.5062196687342732
  0.2400000000000000  0.9777777777777773  0.5062196687342732
  0.3600000000000000  0.8444444444444440  0.5062196687342732
  0.3399999999999999  0.8777777777777774  0.5062196687342732
  0.2800000000000000  0.8888888888888885  0.5062196687342732
  0.3000000000000000  0.9222222222222218  0.5062196687342732
  0.3200000000000000  0.9111111111111106  0.5062196687342732
  0.2800000000000000  0.9555555555555552  0.5062196687342732
  0.3000000000000000  0.9444444444444440  0.5062196687342732
  0.2600000000000000  0.9888888888888884  0.5062196687342732
  0.2800000000000000  0.9777777777777773  0.5062196687342732
  0.3000000000000000  0.8777777777777774  0.5062196687342732
  0.2800000000000000  0.9111111111111106  0.5062196687342732
  0.2199999999999999  0.9888888888888884  0.5062196687342732
  0.2400000000000000  0.6222222222222221  0.5062196687342732
  0.2600000000000000  0.5888888888888885  0.5062196687342732
  0.3200000000000000  0.5555555555555556  0.5062196687342732
  0.4999999999999999  0.1888888888888889  0.5062196687342732
  0.7000000000000001  0.8555555555555552  0.5062196687342732
  0.7200000000000001  0.8444444444444440  0.5062196687342732
  0.6799999999999998  0.9111111111111106  0.5062196687342732
  0.7000000000000001  0.8777777777777774  0.5062196687342732
  0.6799999999999997  0.9777777777777773  0.5062196687342732
  0.6600000000000000  0.9888888888888884  0.5062196687342732
  0.6799999999999997  0.9555555555555552  0.5062196687342732
  0.7000000000000001  0.6777777777777777  0.5062196687342732
  0.7200000000000000  0.9111111111111106  0.5062196687342732
  0.7000000000000001  0.9222222222222218  0.5062196687342732
  0.6799999999999998  0.8888888888888885  0.5062196687342732
  0.5200000000000000  0.1777777777777777  0.5062196687342732
  0.7400000000000001  0.8777777777777774  0.5062196687342732
  0.6400000000000000  0.9777777777777773  0.5062196687342732
  0.6200000000000000  0.9888888888888884  0.5062196687342732
  0.6600000000000000  0.9444444444444440  0.5062196687342732
  0.6400000000000001  0.9555555555555552  0.5062196687342732
  0.6600000000000000  0.9222222222222218  0.5062196687342732
  0.7200000000000000  0.8888888888888885  0.5062196687342732
  0.7400000000000001  0.8555555555555552  0.5062196687342732
  0.6000000000000001  0.8444444444444440  0.5062196687342732
  0.7799999999999997  0.8777777777777774  0.5062196687342732
  0.6000000000000001  0.7555555555555554  0.5062196687342732
  0.7799999999999998  0.7888888888888885  0.5062196687342732
  0.9600000000000001  0.0888888888888888  0.5062196687342732
  0.7600000000000001  0.8444444444444440  0.5062196687342732
  0.0999999999999999  0.4555555555555553  0.5062196687342732
  0.4800000000000000  0.2444444444444444  0.5062196687342732
  0.4800000000000000  0.3111111111111111  0.5062196687342732
  0.6200000000000000  0.7888888888888885  0.5062196687342732
  0.6600000000000000  0.7444444444444441  0.5062196687342732
  0.6400000000000001  0.8222222222222221  0.5062196687342732
  0.7799999999999998  0.8111111111111107  0.5062196687342732
  0.6000000000000001  0.7777777777777773  0.5062196687342732
  0.6000000000000001  0.6888888888888888  0.5062196687342732
  0.6200000000000000  0.6777777777777776  0.5062196687342732
  0.7799999999999998  0.7222222222222218  0.5062196687342732
  0.6000000000000001  0.7111111111111107  0.5062196687342732
  0.7600000000000001  0.7555555555555554  0.5062196687342732
  0.7799999999999998  0.7444444444444440  0.5062196687342732
  0.7400000000000001  0.7888888888888884  0.5062196687342732
  0.4999999999999999  0.2111111111111111  0.5062196687342732
  0.7600000000000000  0.7777777777777773  0.5062196687342732
  0.7400000000000001  0.8111111111111107  0.5062196687342732
  0.6400000000000001  0.6888888888888888  0.5062196687342732
  0.6600000000000000  0.6777777777777777  0.5062196687342732
  0.6200000000000000  0.7222222222222219  0.5062196687342732
  0.6400000000000001  0.7111111111111107  0.5062196687342732
  0.6400000000000001  0.7555555555555554  0.5062196687342732
  0.6799999999999997  0.7111111111111107  0.5062196687342732
  0.6600000000000000  0.7222222222222218  0.5062196687342732
  0.7000000000000001  0.9444444444444440  0.5062196687342732
  0.4800000000000000  0.2888888888888887  0.5062196687342732
  0.4999999999999999  0.2777777777777777  0.5062196687342732
  0.4600000000000000  0.3222222222222220  0.5062196687342732
  0.7200000000000000  0.8222222222222220  0.5062196687342732
  0.6400000000000001  0.7777777777777773  0.5062196687342732
  0.1600000000000000  0.3777777777777777  0.5062196687342732
  0.0600000000000000  0.5444444444444444  0.5062196687342732
  0.7799999999999998  0.8555555555555552  0.5062196687342732
  0.7200000000000000  0.9777777777777773  0.5062196687342732
  0.7600000000000000  0.8888888888888885  0.5062196687342732
  0.6600000000000000  0.8111111111111107  0.5062196687342732
  0.7799999999999997  0.6777777777777777  0.5062196687342732
  0.6600000000000000  0.8555555555555552  0.5062196687342732
  0.7600000000000000  0.9777777777777773  0.5062196687342732
  0.7400000000000001  0.9888888888888885  0.5062196687342732
  0.7799999999999998  0.9444444444444441  0.5062196687342732
  0.7600000000000000  0.9555555555555552  0.5062196687342732
  0.6000000000000001  0.9111111111111108  0.5062196687342732
  0.7799999999999998  0.9222222222222218  0.5062196687342732
  0.6600000000000000  0.8777777777777774  0.5062196687342732
  0.6200000000000000  0.8777777777777774  0.5062196687342732
  0.6400000000000001  0.8444444444444440  0.5062196687342732
  0.6200000000000000  0.8555555555555552  0.5062196687342732
  0.7000000000000001  0.9888888888888885  0.5062196687342732
  0.7600000000000000  0.7111111111111107  0.5062196687342732
  0.7400000000000001  0.9444444444444440  0.5062196687342732
  0.7200000000000000  0.9555555555555552  0.5062196687342732
  0.7600000000000000  0.9111111111111108  0.5062196687342732
  0.7400000000000001  0.9222222222222218  0.5062196687342732
  0.6799999999999998  0.8444444444444440  0.5062196687342732
  0.7600000000000001  0.6888888888888888  0.5062196687342732
  0.6400000000000001  0.8888888888888885  0.5062196687342732
  0.6200000000000000  0.9222222222222218  0.5062196687342732
  0.6000000000000001  0.8888888888888885  0.5062196687342732
  0.1800000000000000  0.5222222222222219  0.5062196687342732
  0.7000000000000000  0.8111111111111107  0.5062196687342732
  0.1199999999999999  0.6444444444444440  0.5062196687342732
  0.0999999999999999  0.4777777777777776  0.5062196687342732
  0.0799999999999999  0.4888888888888887  0.5062196687342732
  0.1199999999999999  0.4444444444444443  0.5062196687342732
  0.1399999999999999  0.4111111111111111  0.5062196687342732
  0.7600000000000000  0.8222222222222220  0.5062196687342732
  0.1200000000000000  0.4222222222222220  0.5062196687342732
  0.7200000000000000  0.7555555555555554  0.5062196687342732
  0.7400000000000001  0.7444444444444441  0.5062196687342732
  0.7000000000000001  0.7888888888888885  0.5062196687342732
  0.7200000000000000  0.7777777777777773  0.5062196687342732
  0.6799999999999998  0.8222222222222221  0.5062196687342732
  0.1400000000000000  0.3888888888888887  0.5062196687342732
  0.0199999999999999  0.5222222222222219  0.5062196687342732
 -0.0000000000000001  0.6444444444444440  0.5062196687342732
  0.0199999999999999  0.6111111111111110  0.5062196687342732
 -0.0000000000000000  0.6222222222222221  0.5062196687342732
  0.0400000000000000  0.5777777777777774  0.5062196687342732
  0.0200000000000000  0.5888888888888886  0.5062196687342732
  0.0400000000000000  0.5555555555555555  0.5062196687342732
  0.1600000000000000  0.3555555555555553  0.5062196687342732
  0.0800000000000000  0.5111111111111108  0.5062196687342732
  0.1400000000000000  0.5888888888888886  0.5062196687342732
  0.1600000000000000  0.5777777777777774  0.5062196687342732
  0.1199999999999999  0.6222222222222221  0.5062196687342732
  0.1400000000000000  0.6111111111111110  0.5062196687342732
  0.0999999999999999  0.6555555555555552  0.5062196687342732
  0.1800000000000000  0.6555555555555552  0.5062196687342732
  0.4600000000000000  0.6111111111111110  0.5062196687342732
  0.6000000000000000  0.8222222222222221  0.5062196687342732
  0.7200000000000000  0.6888888888888888  0.5062196687342732
  0.6600000000000000  0.2777777777777777  0.5062196687342732
  0.6400000000000001  0.2888888888888887  0.5062196687342732
  0.6600000000000000  0.2555555555555554  0.5062196687342732
  0.7200000000000000  0.2222222222222222  0.5062196687342732
  0.6000000000000001  0.1777777777777777  0.5062196687342732
  0.3000000000000000  0.5888888888888886  0.5062196687342732
  0.7799999999999997  0.2111111111111110  0.5062196687342732
  0.7000000000000001  0.0111111111111111  0.5062196687342732
  0.3000000000000000  0.5222222222222219  0.5062196687342732
  0.3200000000000000  0.5111111111111107  0.5062196687342732
  0.2800000000000000  0.5777777777777774  0.5062196687342732
  0.3000000000000000  0.5444444444444444  0.5062196687342732
  0.6200000000000000  0.3222222222222220  0.5062196687342732
  0.2800000000000000  0.6444444444444440  0.5062196687342732
  0.3000000000000000  0.6111111111111110  0.5062196687342732
  0.2800000000000000  0.6222222222222221  0.5062196687342732
  0.3200000000000000  0.5777777777777774  0.5062196687342732
  0.2800000000000000  0.4444444444444443  0.5062196687342732
  0.2400000000000000  0.4888888888888887  0.5062196687342732
  0.6400000000000001  0.0222222222222222  0.5062196687342732
  0.3799999999999999  0.4777777777777775  0.5062196687342732
  0.6400000000000001  0.1111111111111111  0.5062196687342732
  0.6000000000000000  0.1555555555555555  0.5062196687342732
  0.6200000000000000  0.1444444444444443  0.5062196687342732
  0.7200000000000000  0.0222222222222222  0.5062196687342732
  0.7400000000000001  0.0111111111111111  0.5062196687342732
  0.2600000000000000  0.6555555555555551  0.5062196687342732
  0.7000000000000001  0.0555555555555555  0.5062196687342732
  0.6400000000000000  0.3111111111111111  0.5062196687342732
  0.7400000000000001  0.2111111111111110  0.5062196687342732
  0.3399999999999999  0.5222222222222219  0.5062196687342732
  0.2000000000000000  0.5111111111111108  0.5062196687342732
  0.3799999999999999  0.5444444444444444  0.5062196687342732
  0.3000000000000000  0.3444444444444444  0.5062196687342732
  0.2600000000000000  0.3888888888888887  0.5062196687342732
  0.2800000000000000  0.3777777777777777  0.5062196687342732
  0.2400000000000000  0.4222222222222220  0.5062196687342732
  0.2600000000000000  0.4111111111111110  0.5062196687342732
  0.2199999999999999  0.4555555555555553  0.5062196687342732
  0.2400000000000000  0.4444444444444443  0.5062196687342732
  0.2000000000000000  0.4888888888888887  0.5062196687342732
  0.2199999999999999  0.4777777777777776  0.5062196687342732
  0.7600000000000001  0.1777777777777777  0.5062196687342732
  0.3200000000000000  0.3555555555555553  0.5062196687342732
  0.3000000000000000  0.3888888888888887  0.5062196687342732
  0.3200000000000000  0.3777777777777777  0.5062196687342732
  0.2800000000000000  0.4222222222222220  0.5062196687342732
  0.3000000000000000  0.4111111111111110  0.5062196687342732
  0.2599999999999999  0.4555555555555553  0.5062196687342732
  0.3600000000000000  0.5111111111111107  0.5062196687342732
  0.3399999999999999  0.5444444444444443  0.5062196687342732
  0.2800000000000000  0.5555555555555555  0.5062196687342732
  0.7400000000000001  0.1888888888888889  0.5062196687342732
  0.7200000000000000  0.2444444444444444  0.5062196687342732
  0.7000000000000001  0.2555555555555554  0.5062196687342732
  0.6799999999999998  0.2222222222222221  0.5062196687342732
  0.3399999999999999  0.3444444444444444  0.5062196687342732
  0.6200000000000000  0.8111111111111107  0.5062196687342732
  0.7200000000000000  0.0444444444444444  0.5062196687342732
  0.7000000000000001  0.0777777777777778  0.5062196687342732
  0.3399999999999999  0.4777777777777775  0.5062196687342732
  0.2600000000000000  0.3444444444444444  0.5062196687342732
  0.6799999999999997  0.0444444444444444  0.5062196687342732
  0.2199999999999999  0.3888888888888887  0.5062196687342732
  0.2400000000000000  0.3777777777777777  0.5062196687342732
  0.2000000000000000  0.4222222222222220  0.5062196687342732
  0.2199999999999999  0.4111111111111110  0.5062196687342732
  0.3799999999999999  0.4555555555555553  0.5062196687342732
  0.3599999999999999  0.4888888888888886  0.5062196687342732
  0.3600000000000000  0.5555555555555555  0.5062196687342732
  0.2600000000000000  0.4777777777777776  0.5062196687342732
  0.3799999999999999  0.3444444444444444  0.5062196687342732
  0.3200000000000000  0.4888888888888886  0.5062196687342732
  0.2600000000000000  0.5222222222222219  0.5062196687342732
  0.9200000000000000  0.8444444444444440  0.5062196687342732
  0.0999999999999999  0.7888888888888885  0.5062196687342732
  0.4999999999999999  0.3222222222222221  0.5062196687342732
  0.7000000000000001  0.7222222222222219  0.5062196687342732
  0.6799999999999998  0.6888888888888888  0.5062196687342732
  0.6799999999999998  0.7777777777777773  0.5062196687342732
  0.6600000000000000  0.7888888888888884  0.5062196687342732
  0.7000000000000001  0.7444444444444441  0.5062196687342732
  0.6799999999999998  0.7555555555555554  0.5062196687342732
  0.7200000000000000  0.7111111111111107  0.5062196687342732
  0.7400000000000001  0.6777777777777777  0.5062196687342732
  0.6200000000000000  0.7444444444444441  0.5062196687342732
  0.6600000000000000  0.0555555555555555  0.5062196687342732
  0.6799999999999998  0.0888888888888888  0.5062196687342732
  0.3600000000000000  0.4444444444444443  0.5062196687342732
  0.3800000000000000  0.4111111111111110  0.5062196687342732
  0.6600000000000000  0.1222222222222221  0.5062196687342732
  0.6799999999999998  0.1111111111111111  0.5062196687342732
  0.6799999999999998  0.0222222222222222  0.5062196687342732
  0.6400000000000001  0.1555555555555555  0.5062196687342732
  0.7799999999999998  0.1444444444444443  0.5062196687342732
  0.6000000000000001  0.1111111111111111  0.5062196687342732
  0.6000000000000001  0.0222222222222222  0.5062196687342732
  0.6200000000000000  0.0111111111111111  0.5062196687342732
  0.7799999999999998  0.0555555555555555  0.5062196687342732
  0.6000000000000001  0.0444444444444444  0.5062196687342732
  0.7600000000000001  0.0888888888888888  0.5062196687342732
  0.7799999999999998  0.0777777777777777  0.5062196687342732
  0.3399999999999999  0.4555555555555553  0.5062196687342732
  0.7400000000000001  0.1222222222222221  0.5062196687342732
  0.7200000000000000  0.1555555555555555  0.5062196687342732
  0.7400000000000001  0.1444444444444443  0.5062196687342732
  0.6200000000000000  0.1222222222222222  0.5062196687342732
  0.6600000000000000  0.0777777777777778  0.5062196687342732
  0.6400000000000001  0.0888888888888889  0.5062196687342732
  0.2400000000000000  0.3555555555555553  0.5062196687342732
  0.2000000000000000  0.4444444444444443  0.5062196687342732
  0.2000000000000000  0.3555555555555553  0.5062196687342732
  0.2199999999999999  0.3444444444444444  0.5062196687342732
  0.3800000000000000  0.3888888888888887  0.5062196687342732
  0.2000000000000000  0.3777777777777777  0.5062196687342732
  0.3600000000000000  0.4222222222222219  0.5062196687342732
  0.7600000000000000  0.1111111111111110  0.5062196687342732
  0.6400000000000001  0.9111111111111108  0.5062196687342732
  0.4399999999999999  0.6222222222222221  0.5062196687342732
  0.5200000000000000  0.5555555555555556  0.5062196687342732
  0.5126445166736925  0.0277750833390998  0.5345333462435290
  0.1626445166736925  0.6111084166724331  0.5345333462435290
  0.1186753166683436  0.6422474166463953  0.5345333462435290
  0.0686753166683436  0.3922474166463955  0.5345333462435290
  0.7686850166475842  0.8299855833305381  0.5345333462435290
  0.1186850166475841  0.4133189166638716  0.5345333462435290
  0.7626445166736926  0.9444417500057661  0.5345333462435290