 C  O Si 
 1.0000000000000000
    26.8000000000000007    0.0000000000000000    0.0000000000000000
     0.0000000000000000   25.5599999999999987    0.0000000000000000
     0.0000000000000000    0.0000000000000000  400.9004799198922910
 C   O   Si 
 25056 3168 3072
Direct
  0.0312500000000000  0.0000000000000000  0.0000000000000000
  0.6562499999999999  0.7222222222222223  0.2638036809815951
  0.6562499999999999  0.8888888888888890  0.3128834355828221
  0.6562499999999999  0.1666666666666667  0.8650306748466258
  0.6562499999999999  0.1388888888888889  0.8680981595092024
  0.6562499999999999  0.0833333333333333  0.8680981595092024
  0.6562499999999999  0.0555555555555556  0.8650306748466258
  0.6562499999999999  0.7500000000000000  0.2668711656441718
  0.6562499999999999  0.9166666666666666  0.7515337423312882
  0.6562499999999999  0.8055555555555556  0.2668711656441718
  0.6562499999999999  0.8888888888888890  0.7484662576687116
  0.6562499999999999  0.1388888888888889  0.7453987730061349
  0.6562499999999999  0.8055555555555556  0.7453987730061349
  0.6562499999999999  0.3333333333333333  0.0858895705521472
  0.6562499999999999  0.5555555555555556  0.0061349693251534
  0.6562499999999999  0.1666666666666667  0.0858895705521472
  0.6562499999999999  0.2500000000000000  0.0889570552147239
  0.6562499999999999  0.2222222222222222  0.0858895705521472
  0.6562499999999999  0.8888888888888890  0.8650306748466258
  0.6562499999999999  0.9166666666666666  0.8680981595092024
  0.6562499999999999  0.8333333333333333  0.7361963190184048
  0.6562499999999999  0.8055555555555556  0.7392638036809814
  0.6562499999999999  0.6666666666666666  0.3374233128834356
  0.6562499999999999  0.6388888888888888  0.3404907975460122
  0.6562499999999999  0.8333333333333333  0.7484662576687116
  0.6562499999999999  0.7500000000000000  0.7392638036809814
  0.6562499999999999  0.9722222222222222  0.7515337423312882
  0.6562499999999999  0.0555555555555556  0.7546012269938650
  0.6562499999999999  0.5555555555555556  0.2638036809815951
  0.6562499999999999  0.1388888888888889  0.0828220858895705
  0.6562499999999999  0.0833333333333333  0.0828220858895705
  0.6562499999999999  0.0555555555555556  0.0797546012269939
  0.6562499999999999  0.2500000000000000  0.8680981595092024
  0.6562499999999999  0.1388888888888889  0.0153374233128834
  0.6562499999999999  0.2222222222222222  0.8650306748466258
  0.6562499999999999  0.9999999999999999  0.3128834355828221
  0.6562499999999999  0.0555555555555556  0.0122699386503067
  0.6562499999999999  0.0833333333333333  0.0153374233128834
  0.6562499999999999  0.9722222222222222  0.3159509202453988
  0.6562499999999999  0.9166666666666666  0.3159509202453988
  0.6562499999999999  0.8055555555555556  0.7515337423312882
  0.6562499999999999  0.4166666666666666  0.3466257668711656
  0.6562499999999999  0.8333333333333333  0.0736196319018405
  0.6562499999999999  0.8055555555555556  0.0766871165644172
  0.6562499999999999  0.7500000000000000  0.0766871165644172
  0.6562499999999999  0.7222222222222223  0.0736196319018405
  0.6562499999999999  0.3888888888888889  0.3435582822085890
  0.6562499999999999  0.4722222222222223  0.3466257668711656
  0.6562499999999999  0.9999999999999999  0.7484662576687116
  0.6562499999999999  0.8333333333333333  0.2638036809815951
  0.6562499999999999  0.5000000000000000  0.3435582822085890
  0.6562499999999999  0.0833333333333333  0.7576687116564417
  0.6562499999999999  0.5555555555555556  0.7484662576687116
  0.6562499999999999  0.3888888888888889  0.0858895705521472
  0.6562499999999999  0.5555555555555556  0.2576687116564417
  0.6562499999999999  0.9722222222222222  0.8680981595092024
  0.6562499999999999  0.1666666666666667  0.7361963190184048
  0.6562499999999999  0.9999999999999999  0.8650306748466258
  0.6562499999999999  0.1666666666666667  0.8711656441717791
  0.6562499999999999  0.5555555555555556  0.3374233128834356
  0.6562499999999999  0.4722222222222223  0.0889570552147239
  0.6562499999999999  0.1388888888888889  0.8742331288343558
  0.6562499999999999  0.8333333333333333  0.3374233128834356
  0.6562499999999999  0.8055555555555556  0.3404907975460122
  0.6562499999999999  0.7500000000000000  0.3404907975460122
  0.6562499999999999  0.5555555555555556  0.7361963190184048
  0.6562499999999999  0.5833333333333334  0.7392638036809814
  0.6562499999999999  0.5000000000000000  0.0858895705521472
  0.6562499999999999  0.8055555555555556  0.2607361963190183
  0.6562499999999999  0.3888888888888889  0.7361963190184048
  0.6562499999999999  0.3055555555555556  0.8742331288343558
  0.6562499999999999  0.2500000000000000  0.8742331288343558
  0.6562499999999999  0.9999999999999999  0.0797546012269939
  0.6562499999999999  0.4166666666666666  0.7392638036809814
  0.6562499999999999  0.4722222222222223  0.7392638036809814
  0.6562499999999999  0.5000000000000000  0.7361963190184048
  0.6562499999999999  0.4722222222222223  0.0092024539877301
  0.6562499999999999  0.9722222222222222  0.2607361963190183
  0.6562499999999999  0.6388888888888888  0.7392638036809814
  0.6562499999999999  0.1388888888888889  0.0889570552147239
  0.6562499999999999  0.0833333333333333  0.8742331288343558
  0.6562499999999999  0.7222222222222223  0.2576687116564417
  0.6562499999999999  0.7222222222222223  0.7361963190184048
  0.6562499999999999  0.5833333333333334  0.0092024539877301
  0.6562499999999999  0.9999999999999999  0.7361963190184048
  0.6562499999999999  0.9722222222222222  0.7392638036809814
  0.6562499999999999  0.9166666666666666  0.7392638036809814
  0.6562499999999999  0.8888888888888890  0.7361963190184048
  0.6562499999999999  0.2500000000000000  0.3220858895705521
  0.6562499999999999  0.3055555555555556  0.3220858895705521
  0.6562499999999999  0.3333333333333333  0.3190184049079755
  0.6562499999999999  0.0555555555555556  0.0858895705521472
  0.6562499999999999  0.0833333333333333  0.0889570552147239
  0.6562499999999999  0.6388888888888888  0.0092024539877301
  0.6562499999999999  0.8333333333333333  0.2576687116564417
  0.6562499999999999  0.3055555555555556  0.0889570552147239
  0.6562499999999999  0.4166666666666666  0.0889570552147239
  0.6562499999999999  0.2222222222222222  0.7361963190184048
  0.6562499999999999  0.6666666666666666  0.7361963190184048
  0.6562499999999999  0.0555555555555556  0.8711656441717791
  0.6562499999999999  0.1388888888888889  0.7392638036809814
  0.6562499999999999  0.5833333333333334  0.3404907975460122
  0.6562499999999999  0.7222222222222223  0.3374233128834356
  0.6562499999999999  0.0833333333333333  0.7392638036809814
  0.6562499999999999  0.0555555555555556  0.7361963190184048
  0.6562499999999999  0.7500000000000000  0.2607361963190183
  0.6562499999999999  0.5833333333333334  0.7515337423312882
  0.6562499999999999  0.1666666666666667  0.0122699386503067
  0.6562499999999999  0.7500000000000000  0.7515337423312882
  0.6562499999999999  0.5555555555555556  0.0797546012269939
  0.6562499999999999  0.5833333333333334  0.8680981595092024
  0.6562499999999999  0.6666666666666666  0.8650306748466258
  0.6562499999999999  0.4166666666666666  0.7453987730061349
  0.6562499999999999  0.1666666666666667  0.3190184049079755
  0.6562499999999999  0.3055555555555556  0.8926380368098156
  0.6562499999999999  0.3888888888888889  0.7423312883435582
  0.6562499999999999  0.4722222222222223  0.7453987730061349
  0.6562499999999999  0.3333333333333333  0.8895705521472389
  0.6562499999999999  0.5000000000000000  0.7423312883435582
  0.6562499999999999  0.1666666666666667  0.2638036809815951
  0.6562499999999999  0.4166666666666666  0.7515337423312882
  0.6562499999999999  0.5000000000000000  0.7484662576687116
  0.6562499999999999  0.0833333333333333  0.7453987730061349
  0.6562499999999999  0.3055555555555556  0.0153374233128834
  0.6562499999999999  0.3333333333333333  0.0122699386503067
  0.6562499999999999  0.9999999999999999  0.8588957055214724
  0.6562499999999999  0.9722222222222222  0.8619631901840491
  0.6562499999999999  0.9166666666666666  0.8619631901840491
  0.6562499999999999  0.8888888888888890  0.8588957055214724
  0.6562499999999999  0.3888888888888889  0.7546012269938650
  0.6562499999999999  0.4166666666666666  0.7576687116564417
  0.6562499999999999  0.4722222222222223  0.7576687116564417
  0.6562499999999999  0.1388888888888889  0.3220858895705521
  0.6562499999999999  0.5000000000000000  0.7546012269938650
  0.6562499999999999  0.5555555555555556  0.8650306748466258
  0.6562499999999999  0.6388888888888888  0.8680981595092024
  0.6562499999999999  0.9999999999999999  0.3374233128834356
  0.6562499999999999  0.8333333333333333  0.0797546012269939
  0.6562499999999999  0.8055555555555556  0.0828220858895705
  0.6562499999999999  0.7500000000000000  0.0828220858895705
  0.6562499999999999  0.7222222222222223  0.0797546012269939
  0.6562499999999999  0.0833333333333333  0.2668711656441718
  0.6562499999999999  0.0555555555555556  0.2638036809815951
  0.6562499999999999  0.2222222222222222  0.8895705521472389
  0.6562499999999999  0.9722222222222222  0.3404907975460122
  0.6562499999999999  0.1666666666666667  0.7423312883435582
  0.6562499999999999  0.8888888888888890  0.3374233128834356
  0.6562499999999999  0.9166666666666666  0.3404907975460122
  0.6562499999999999  0.7222222222222223  0.0061349693251534
  0.6562499999999999  0.7500000000000000  0.0092024539877301
  0.6562499999999999  0.8055555555555556  0.0092024539877301
  0.6562499999999999  0.8333333333333333  0.0061349693251534
  0.6562499999999999  0.1388888888888889  0.2668711656441718
  0.6562499999999999  0.6666666666666666  0.0797546012269939
  0.6562499999999999  0.5555555555555556  0.7423312883435582
  0.6562499999999999  0.5833333333333334  0.7453987730061349
  0.6562499999999999  0.6388888888888888  0.7453987730061349
  0.6562499999999999  0.6666666666666666  0.7423312883435582
  0.6562499999999999  0.6388888888888888  0.0828220858895705
  0.6562499999999999  0.5833333333333334  0.0828220858895705
  0.6562499999999999  0.5555555555555556  0.3435582822085890
  0.6562499999999999  0.5555555555555556  0.0736196319018405
  0.6562499999999999  0.5833333333333334  0.0766871165644172
  0.6562499999999999  0.1388888888888889  0.2730061349693251
  0.6562499999999999  0.0555555555555556  0.2699386503067485
  0.6562499999999999  0.8333333333333333  0.3128834355828221
  0.6562499999999999  0.8055555555555556  0.3159509202453988
  0.6562499999999999  0.7500000000000000  0.3159509202453988
  0.6562499999999999  0.7222222222222223  0.3128834355828221
  0.6562499999999999  0.8333333333333333  0.8588957055214724
  0.6562499999999999  0.8055555555555556  0.8619631901840491
  0.6562499999999999  0.7500000000000000  0.8619631901840491
  0.6562499999999999  0.7222222222222223  0.8588957055214724
  0.6562499999999999  0.1666666666666667  0.7546012269938650
  0.6562499999999999  0.1666666666666667  0.0797546012269939
  0.6562499999999999  0.1388888888888889  0.7576687116564417
  0.6562499999999999  0.6388888888888888  0.7515337423312882
  0.6562499999999999  0.6666666666666666  0.7484662576687116
  0.6562499999999999  0.5833333333333334  0.2668711656441718
  0.6562499999999999  0.6388888888888888  0.2668711656441718
  0.6562499999999999  0.6666666666666666  0.2638036809815951
  0.6562499999999999  0.9999999999999999  0.0736196319018405
  0.6562499999999999  0.9722222222222222  0.0766871165644172
  0.6562499999999999  0.9166666666666666  0.0766871165644172
  0.6562499999999999  0.8888888888888890  0.0736196319018405
  0.6562499999999999  0.7222222222222223  0.7484662576687116
  0.6562499999999999  0.8055555555555556  0.7576687116564417
  0.6562499999999999  0.7500000000000000  0.7576687116564417
  0.6562499999999999  0.7222222222222223  0.7546012269938650
  0.6562499999999999  0.1666666666666667  0.2699386503067485
  0.6562499999999999  0.6388888888888888  0.0766871165644172
  0.6562499999999999  0.9722222222222222  0.2668711656441718
  0.6562499999999999  0.8888888888888890  0.2638036809815951
  0.6562499999999999  0.9166666666666666  0.2668711656441718
  0.6562499999999999  0.9999999999999999  0.2638036809815951
  0.6562499999999999  0.6666666666666666  0.0736196319018405
  0.6562499999999999  0.2222222222222222  0.7546012269938650
  0.6562499999999999  0.2500000000000000  0.7576687116564417
  0.6562499999999999  0.3055555555555556  0.7576687116564417
  0.6562499999999999  0.3333333333333333  0.7546012269938650
  0.6562499999999999  0.2222222222222222  0.0122699386503067
  0.6562499999999999  0.4166666666666666  0.3220858895705521
  0.6562499999999999  0.2500000000000000  0.0153374233128834
  0.6562499999999999  0.6388888888888888  0.3466257668711656
  0.6562499999999999  0.6666666666666666  0.3435582822085890
  0.6562499999999999  0.4166666666666666  0.0766871165644172
  0.6562499999999999  0.5555555555555556  0.7546012269938650
  0.6562499999999999  0.5833333333333334  0.7576687116564417
  0.6562499999999999  0.6388888888888888  0.7576687116564417
  0.6562499999999999  0.6666666666666666  0.7546012269938650
  0.6562499999999999  0.5000000000000000  0.0736196319018405
  0.6562499999999999  0.4722222222222223  0.0766871165644172
  0.6562499999999999  0.3888888888888889  0.0736196319018405
  0.6562499999999999  0.0833333333333333  0.2730061349693251
  0.6562499999999999  0.5833333333333334  0.3466257668711656
  0.6562499999999999  0.8888888888888890  0.7300613496932514
  0.6562499999999999  0.9166666666666666  0.7331288343558281
  0.6562499999999999  0.8888888888888890  0.2576687116564417
  0.5312500000000000  0.6944444444444445  0.3159509202453988
  0.5312500000000000  0.6666666666666666  0.3435582822085890
  0.5312500000000000  0.1666666666666667  0.3558282208588956
  0.5312500000000000  0.1944444444444444  0.3588957055214723
  0.5312500000000000  0.2500000000000000  0.3588957055214723
  0.5312500000000000  0.2777777777777778  0.3558282208588956
  0.5312500000000000  0.6666666666666666  0.3128834355828221
  0.5312500000000000  0.7500000000000000  0.3159509202453988
  0.5312500000000000  0.3611111111111112  0.5429447852760736
  0.5312500000000000  0.8333333333333333  0.5521472392638037
  0.5312500000000000  0.6111111111111112  0.3251533742331288
  0.5312500000000000  0.5833333333333334  0.3282208588957055
  0.5312500000000000  0.5277777777777778  0.3282208588957055
  0.5312500000000000  0.4444444444444445  0.1840490797546012
  0.5312500000000000  0.4166666666666666  0.1871165644171779
  0.5312500000000000  0.6944444444444445  0.3466257668711656
  0.5312500000000000  0.7500000000000000  0.3466257668711656
  0.5312500000000000  0.7777777777777778  0.3435582822085890
  0.5312500000000000  0.8333333333333333  0.3067484662576687
  0.5312500000000000  0.8611111111111110  0.5552147239263804
  0.5312500000000000  0.9166666666666666  0.5552147239263804
  0.5312500000000000  0.2777777777777778  0.1963190184049080
  0.5312500000000000  0.6666666666666666  0.3251533742331288
  0.5312500000000000  0.9444444444444444  0.5521472392638037
  0.5312500000000000  0.6944444444444445  0.3282208588957055
  0.5312500000000000  0.7777777777777778  0.3128834355828221
  0.5312500000000000  0.5833333333333334  0.3466257668711656
  0.5312500000000000  0.7500000000000000  0.3098159509202453
  0.5312500000000000  0.7777777777777778  0.3251533742331288
  0.5312500000000000  0.7500000000000000  0.3282208588957055
  0.5312500000000000  0.8611111111111110  0.3098159509202453
  0.5312500000000000  0.6111111111111112  0.3006134969325153
  0.5312500000000000  0.5833333333333334  0.3036809815950919
  0.5312500000000000  0.7777777777777778  0.3067484662576687
  0.5312500000000000  0.6944444444444445  0.3098159509202453
  0.5312500000000000  0.0277777777777778  0.3527607361963190
  0.5312500000000000  0.3611111111111112  0.3588957055214723
  0.5312500000000000  0.9444444444444444  0.3435582822085890
  0.5312500000000000  0.4166666666666666  0.3220858895705521
  0.5312500000000000  0.4444444444444445  0.3190184049079755
  0.5312500000000000  0.5000000000000000  0.3435582822085890
  0.5312500000000000  0.4444444444444445  0.3558282208588956
  0.5312500000000000  0.4166666666666666  0.3588957055214723
  0.5312500000000000  0.4444444444444445  0.5398773006134969
  0.5312500000000000  0.6111111111111112  0.3435582822085890
  0.5312500000000000  0.4166666666666666  0.5429447852760736
  0.5312500000000000  0.3333333333333333  0.3558282208588956
  0.5312500000000000  0.5277777777777778  0.3466257668711656
  0.5312500000000000  0.9166666666666666  0.5674846625766869
  0.5312500000000000  0.9444444444444444  0.5644171779141103
  0.5312500000000000  0.5277777777777778  0.3036809815950919
  0.5312500000000000  0.4444444444444445  0.3680981595092024
  0.5312500000000000  0.4166666666666666  0.3711656441717791
  0.5312500000000000  0.2500000000000000  0.1993865030674847
  0.5312500000000000  0.5833333333333334  0.5429447852760736
  0.5312500000000000  0.5000000000000000  0.3128834355828221
  0.5312500000000000  0.0000000000000000  0.3496932515337424
  0.5312500000000000  0.7777777777777778  0.5460122699386504
  0.5312500000000000  0.7500000000000000  0.5490797546012270
  0.5312500000000000  0.6111111111111112  0.5398773006134969
  0.5312500000000000  0.6944444444444445  0.5490797546012270
  0.5312500000000000  0.6666666666666666  0.5460122699386504
  0.5312500000000000  0.5000000000000000  0.1840490797546012
  0.5312500000000000  0.4166666666666666  0.3282208588957055
  0.5312500000000000  0.4166666666666666  0.3404907975460122
  0.5312500000000000  0.5277777777777778  0.3220858895705521
  0.5312500000000000  0.9166666666666666  0.5490797546012270
  0.5312500000000000  0.8611111111111110  0.5490797546012270
  0.5312500000000000  0.8333333333333333  0.5460122699386504
  0.5312500000000000  0.3611111111111112  0.3220858895705521
  0.5312500000000000  0.5833333333333334  0.3220858895705521
  0.5312500000000000  0.5000000000000000  0.3190184049079755
  0.5312500000000000  0.6111111111111112  0.3128834355828221
  0.5312500000000000  0.3333333333333333  0.3374233128834356
  0.5312500000000000  0.3611111111111112  0.3404907975460122
  0.5312500000000000  0.5000000000000000  0.3374233128834356
  0.5312500000000000  0.7777777777777778  0.5521472392638037
  0.5312500000000000  0.5277777777777778  0.5429447852760736
  0.5312500000000000  0.5000000000000000  0.5398773006134969
  0.5312500000000000  0.5277777777777778  0.3159509202453988
  0.5312500000000000  0.5833333333333334  0.3159509202453988
  0.5312500000000000  0.3611111111111112  0.3711656441717791
  0.5312500000000000  0.3333333333333333  0.3680981595092024
  0.5312500000000000  0.5000000000000000  0.3006134969325153
  0.5312500000000000  0.3333333333333333  0.5398773006134969
  0.5312500000000000  0.8611111111111110  0.5674846625766869
  0.5312500000000000  0.8333333333333333  0.5644171779141103
  0.5312500000000000  0.4444444444444445  0.3374233128834356
  0.5312500000000000  0.7500000000000000  0.1932515337423313
  0.5312500000000000  0.1666666666666667  0.3680981595092024
  0.5312500000000000  0.1944444444444444  0.3711656441717791
  0.5312500000000000  0.2500000000000000  0.3711656441717791
  0.5312500000000000  0.9166666666666666  0.3098159509202453
  0.5312500000000000  0.2777777777777778  0.3680981595092024
  0.5312500000000000  0.5277777777777778  0.1932515337423313
  0.5312500000000000  0.6944444444444445  0.1932515337423313
  0.5312500000000000  0.3611111111111112  0.3282208588957055
  0.5312500000000000  0.5833333333333334  0.1932515337423313
  0.5312500000000000  0.5833333333333334  0.1871165644171779
  0.5312500000000000  0.6111111111111112  0.1901840490797546
  0.5312500000000000  0.5277777777777778  0.1871165644171779
  0.5312500000000000  0.0000000000000000  0.5582822085889569
  0.5312500000000000  0.0277777777777778  0.5613496932515336
  0.5312500000000000  0.7777777777777778  0.1901840490797546
  0.5312500000000000  0.9444444444444444  0.5460122699386504
  0.5312500000000000  0.5000000000000000  0.1901840490797546
  0.6562499999999999  0.7222222222222223  0.8650306748466258
  0.5312500000000000  0.9444444444444444  0.3067484662576687
  0.5312500000000000  0.8611111111111110  0.3466257668711656
  0.6562499999999999  0.5555555555555556  0.0858895705521472
  0.6562499999999999  0.3888888888888889  0.2576687116564417
  0.5312500000000000  0.0833333333333333  0.5613496932515336
  0.5312500000000000  0.2777777777777778  0.3374233128834356
  0.5312500000000000  0.9166666666666666  0.1993865030674847
  0.5312500000000000  0.8611111111111110  0.3650306748466257
  0.5312500000000000  0.4444444444444445  0.3435582822085890
  0.5312500000000000  0.4166666666666666  0.3466257668711656
  0.5312500000000000  0.8333333333333333  0.3619631901840490
  0.5312500000000000  0.0833333333333333  0.1932515337423313
  0.5312500000000000  0.3333333333333333  0.1963190184049080
  0.5312500000000000  0.1944444444444444  0.3527607361963190
  0.5312500000000000  0.8333333333333333  0.3251533742331288
  0.5312500000000000  0.6666666666666666  0.5398773006134969
  0.5312500000000000  0.1111111111111111  0.5582822085889569
  0.5312500000000000  0.7500000000000000  0.5674846625766869
  0.5312500000000000  0.7777777777777778  0.5644171779141103
  0.5312500000000000  0.6944444444444445  0.5674846625766869
  0.5312500000000000  0.6666666666666666  0.5644171779141103
  0.5312500000000000  0.6666666666666666  0.3067484662576687
  0.5312500000000000  0.1111111111111111  0.3558282208588956
  0.5312500000000000  0.7777777777777778  0.5398773006134969
  0.5312500000000000  0.1111111111111111  0.3496932515337424
  0.6562499999999999  0.2500000000000000  0.7392638036809814
  0.5312500000000000  0.9444444444444444  0.3251533742331288
  0.6562499999999999  0.6388888888888888  0.0889570552147239
  0.6562499999999999  0.3888888888888889  0.3190184049079755
  0.6562499999999999  0.3333333333333333  0.8711656441717791
  0.6562499999999999  0.5833333333333334  0.2607361963190183
  0.6562499999999999  0.8888888888888890  0.0797546012269939
  0.6562499999999999  0.5000000000000000  0.0061349693251534
  0.6562499999999999  0.9722222222222222  0.0828220858895705
  0.6562499999999999  0.9166666666666666  0.0828220858895705
  0.6562499999999999  0.5000000000000000  0.3190184049079755
  0.6562499999999999  0.4722222222222223  0.3220858895705521
  0.6562499999999999  0.6666666666666666  0.2576687116564417
  0.6562499999999999  0.3333333333333333  0.7361963190184048
  0.6562499999999999  0.9166666666666666  0.2607361963190183
  0.6562499999999999  0.6388888888888888  0.2607361963190183
  0.6562499999999999  0.9722222222222222  0.7331288343558281
  0.6562499999999999  0.4166666666666666  0.2607361963190183
  0.6562499999999999  0.0555555555555556  0.7423312883435582
  0.6562499999999999  0.9999999999999999  0.7300613496932514
  0.6562499999999999  0.2222222222222222  0.8711656441717791
  0.6562499999999999  0.5000000000000000  0.2576687116564417
  0.6562499999999999  0.2222222222222222  0.3190184049079755
  0.6562499999999999  0.4722222222222223  0.2607361963190183
  0.6562499999999999  0.3055555555555556  0.7392638036809814
  0.6562499999999999  0.6666666666666666  0.0061349693251534
  0.6562499999999999  0.9999999999999999  0.2576687116564417
  0.6562499999999999  0.5833333333333334  0.0889570552147239
  0.5312500000000000  0.7500000000000000  0.5429447852760736
  0.5312500000000000  0.9166666666666666  0.3282208588957055
  0.5312500000000000  0.8611111111111110  0.3282208588957055
  0.5312500000000000  0.0833333333333333  0.3711656441717791
  0.5312500000000000  0.1666666666666667  0.3496932515337424
  0.5312500000000000  0.0277777777777778  0.3711656441717791
  0.5312500000000000  0.0000000000000000  0.3680981595092024
  0.5312500000000000  0.0277777777777778  0.1932515337423313
  0.5312500000000000  0.7777777777777778  0.5582822085889569
  0.5312500000000000  0.3333333333333333  0.3435582822085890
  0.5312500000000000  0.8611111111111110  0.3159509202453988
  0.5312500000000000  0.7500000000000000  0.5613496932515336
  0.5312500000000000  0.0000000000000000  0.1901840490797546
  0.5312500000000000  0.8333333333333333  0.5582822085889569
  0.5312500000000000  0.6944444444444445  0.5613496932515336
  0.5312500000000000  0.6666666666666666  0.5582822085889569
  0.5312500000000000  0.3333333333333333  0.3128834355828221
  0.5312500000000000  0.3611111111111112  0.3159509202453988
  0.5312500000000000  0.4166666666666666  0.3159509202453988
  0.5312500000000000  0.8611111111111110  0.5613496932515336
  0.5312500000000000  0.6666666666666666  0.3006134969325153
  0.5312500000000000  0.6944444444444445  0.3036809815950919
  0.5312500000000000  0.7500000000000000  0.3036809815950919
  0.5312500000000000  0.6111111111111112  0.1840490797546012
  0.5312500000000000  0.0833333333333333  0.3527607361963190
  0.5312500000000000  0.9166666666666666  0.3466257668711656
  0.5312500000000000  0.1111111111111111  0.3680981595092024
  0.5312500000000000  0.5000000000000000  0.3558282208588956
  0.5312500000000000  0.3611111111111112  0.3466257668711656
  0.5312500000000000  0.5277777777777778  0.3588957055214723
  0.5312500000000000  0.6944444444444445  0.5429447852760736
  0.5312500000000000  0.1111111111111111  0.1901840490797546
  0.5312500000000000  0.3333333333333333  0.3251533742331288
  0.5312500000000000  0.0833333333333333  0.3588957055214723
  0.5312500000000000  0.9444444444444444  0.1963190184049080
  0.5312500000000000  0.5833333333333334  0.3588957055214723
  0.5312500000000000  0.9166666666666666  0.5613496932515336
  0.5312500000000000  0.9166666666666666  0.3159509202453988
  0.5312500000000000  0.9444444444444444  0.5582822085889569
  0.5312500000000000  0.9444444444444444  0.3128834355828221
  0.5312500000000000  0.7777777777777778  0.3006134969325153
  0.5312500000000000  0.8333333333333333  0.3435582822085890
  0.5312500000000000  0.0000000000000000  0.3312883435582822
  0.5312500000000000  0.6111111111111112  0.5521472392638037
  0.5312500000000000  0.9166666666666666  0.3650306748466257
  0.5312500000000000  0.5833333333333334  0.5552147239263804
  0.5312500000000000  0.0277777777777778  0.3343558282208589
  0.5312500000000000  0.9444444444444444  0.3619631901840490
  0.5312500000000000  0.0833333333333333  0.3343558282208589
  0.5312500000000000  0.1111111111111111  0.3312883435582822
  0.5312500000000000  0.5277777777777778  0.5552147239263804
  0.5312500000000000  0.3333333333333333  0.3190184049079755
  0.5312500000000000  0.5000000000000000  0.5521472392638037
  0.5312500000000000  0.6111111111111112  0.3558282208588956
  0.5312500000000000  0.4444444444444445  0.3128834355828221
  0.6562499999999999  0.7500000000000000  0.8680981595092024
  0.6562499999999999  0.8055555555555556  0.8680981595092024
  0.6562499999999999  0.3333333333333333  0.7423312883435582
  0.6562499999999999  0.1388888888888889  0.0092024539877301
  0.6562499999999999  0.1666666666666667  0.0061349693251534
  0.6562499999999999  0.8333333333333333  0.8711656441717791
  0.6562499999999999  0.8055555555555556  0.8742331288343558
  0.6562499999999999  0.7500000000000000  0.8742331288343558
  0.6562499999999999  0.7222222222222223  0.8711656441717791
  0.6562499999999999  0.6666666666666666  0.3190184049079755
  0.6562499999999999  0.8888888888888890  0.2515337423312883
  0.6562499999999999  0.5555555555555556  0.8773006134969326
  0.6562499999999999  0.6388888888888888  0.8803680981595092
  0.6562499999999999  0.9722222222222222  0.7024539877300614
  0.6562499999999999  0.9999999999999999  0.6993865030674847
  0.6562499999999999  0.5000000000000000  0.8834355828220859
  0.6562499999999999  0.4722222222222223  0.8865030674846626
  0.6562499999999999  0.8888888888888890  0.6993865030674847
  0.6562499999999999  0.0555555555555556  0.7055214723926381
  0.6562499999999999  0.0833333333333333  0.7085889570552144
  0.6562499999999999  0.1388888888888889  0.7085889570552144
  0.6562499999999999  0.1666666666666667  0.7055214723926381
  0.6562499999999999  0.9166666666666666  0.7024539877300614
  0.6562499999999999  0.9166666666666666  0.8865030674846626
  0.6562499999999999  0.1666666666666667  0.2453987730061350
  0.6562499999999999  0.8333333333333333  0.6993865030674847
  0.6562499999999999  0.0833333333333333  0.0092024539877301
  0.6562499999999999  0.3888888888888889  0.3251533742331288
  0.6562499999999999  0.0555555555555556  0.0061349693251534
  0.6562499999999999  0.8333333333333333  0.7546012269938650
  0.6562499999999999  0.4722222222222223  0.7269938650306746
  0.6562499999999999  0.5000000000000000  0.7239263803680980
  0.6562499999999999  0.5000000000000000  0.0920245398773006
  0.6562499999999999  0.9999999999999999  0.8711656441717791
  0.6562499999999999  0.9722222222222222  0.8742331288343558
  0.6562499999999999  0.4722222222222223  0.0950920245398773
  0.6562499999999999  0.4166666666666666  0.0950920245398773
  0.6562499999999999  0.3888888888888889  0.0920245398773006
  0.6562499999999999  0.7500000000000000  0.7269938650306746
  0.6562499999999999  0.8333333333333333  0.7239263803680980
  0.6562499999999999  0.9166666666666666  0.7269938650306746
  0.6562499999999999  0.9722222222222222  0.7269938650306746
  0.6562499999999999  0.6388888888888888  0.3220858895705521
  0.6562499999999999  0.5833333333333334  0.3220858895705521
  0.6562499999999999  0.9999999999999999  0.7239263803680980
  0.6562499999999999  0.5555555555555556  0.3190184049079755
  0.6562499999999999  0.2500000000000000  0.0950920245398773
  0.6562499999999999  0.1666666666666667  0.0920245398773006
  0.6562499999999999  0.1388888888888889  0.0950920245398773
  0.6562499999999999  0.2222222222222222  0.3374233128834356
  0.6562499999999999  0.8888888888888890  0.7239263803680980
  0.6562499999999999  0.9999999999999999  0.2515337423312883
  0.6562499999999999  0.9722222222222222  0.2546012269938649
  0.6562499999999999  0.2222222222222222  0.0920245398773006