 C 
 1.0000000000000000
     9.8380485869912206    0.0000000000000000    0.0000000000000000
     0.0000000000000000   -6.7000000000000002    0.0000000000000004
     0.0000000000000000   -0.0000000000000008  -12.7799999999999994
   C
  96
Direct
  0.0000000000000000 -0.0000000000000000  0.0000000000000000
  0.1250000000000000 -0.0000000000000000  0.0555555555555556
  0.1250000000000000  0.0000000000000000  0.1666666666666667
  0.0000000000000000 -0.0000000000000000  0.2222222222222222
  0.0000000000000000  0.0000000000000000  0.3333333333333333
  0.1250000000000000 -0.0000000000000000  0.3888888888888889
  0.1250000000000000 -0.0000000000000000  0.5000000000000000
  0.0000000000000000 -0.0000000000000000  0.5555555555555556
  0.0000000000000000  0.0000000000000000  0.6666666666666666
  0.1250000000000000 -0.0000000000000000  0.7222222222222223
  0.1250000000000000  0.0000000000000000  0.8333333333333333
  0.0000000000000000 -0.0000000000000000  0.8888888888888890
  0.7500000000000001 -0.0000000000000000  0.0000000000000000
  0.8750000000000000 -0.0000000000000000  0.0555555555555556
  0.8750000000000000  0.0000000000000000  0.1666666666666667
  0.7500000000000001 -0.0000000000000000  0.2222222222222222
  0.7500000000000001  0.0000000000000000  0.3333333333333333
  0.8750000000000000 -0.0000000000000000  0.3888888888888889
  0.8750000000000000 -0.0000000000000000  0.5000000000000000
  0.7500000000000001 -0.0000000000000000  0.5555555555555556
  0.7500000000000001  0.0000000000000000  0.6666666666666666
  0.8750000000000000 -0.0000000000000000  0.7222222222222223
  0.8750000000000000  0.0000000000000000  0.8333333333333333
  0.7500000000000001 -0.0000000000000000  0.8888888888888890
  0.5000000000000000 -0.0000000000000000  0.0000000000000000
  0.6250000000000000 -0.0000000000000000  0.0555555555555556
  0.6250000000000000  0.0000000000000000  0.1666666666666667
  0.5000000000000000 -0.0000000000000000  0.2222222222222222
  0.5000000000000000  0.0000000000000000  0.3333333333333333
  0.6250000000000000 -0.0000000000000000  0.3888888888888889
  0.6250000000000000 -0.0000000000000000  0.5000000000000000
  0.5000000000000000 -0.0000000000000000  0.5555555555555556
  0.5000000000000000  0.0000000000000000  0.6666666666666666
  0.6250000000000000 -0.0000000000000000  0.7222222222222223
  0.6250000000000000  0.0000000000000000  0.8333333333333333
  0.5000000000000000 -0.0000000000000000  0.8888888888888890
  0.2500000000000000 -0.0000000000000000  0.0000000000000000
  0.3749999999999999 -0.0000000000000000  0.0555555555555556
  0.3749999999999999  0.0000000000000000  0.1666666666666667
  0.2500000000000000 -0.0000000000000000  0.2222222222222222
  0.2500000000000000  0.0000000000000000  0.3333333333333333
  0.3749999999999999 -0.0000000000000000  0.3888888888888889
  0.3749999999999999 -0.0000000000000000  0.5000000000000000
  0.2500000000000000 -0.0000000000000000  0.5555555555555556
  0.2500000000000000  0.0000000000000000  0.6666666666666666
  0.3749999999999999 -0.0000000000000000  0.7222222222222223
  0.3749999999999999  0.0000000000000000  0.8333333333333333
  0.2500000000000000 -0.0000000000000000  0.8888888888888890
  0.0000000000000000  0.4999999999999999  0.1111111111111111
  0.1250000000000000  0.4999999999999999  0.1666666666666667
  0.1250000000000000  0.4999999999999999  0.2777777777777778
  0.0000000000000000  0.4999999999999999  0.3333333333333333
  0.0000000000000000  0.4999999999999999  0.4444444444444445
  0.1250000000000000  0.4999999999999999  0.5000000000000000
  0.1250000000000000  0.4999999999999999  0.6111111111111112
  0.0000000000000000  0.4999999999999999  0.6666666666666666
  0.0000000000000000  0.4999999999999999  0.7777777777777778
  0.1250000000000000  0.4999999999999999  0.8333333333333334
  0.1250000000000000  0.4999999999999999  0.9444444444444444
  0.0000000000000000  0.4999999999999999  0.0000000000000000
  0.7500000000000001  0.4999999999999999  0.1111111111111111
  0.8750000000000000  0.4999999999999999  0.1666666666666667
  0.8750000000000000  0.4999999999999999  0.2777777777777778
  0.7500000000000001  0.4999999999999999  0.3333333333333333
  0.7500000000000001  0.4999999999999999  0.4444444444444445
  0.8750000000000000  0.4999999999999999  0.5000000000000000
  0.8750000000000000  0.4999999999999999  0.6111111111111112
  0.7500000000000001  0.4999999999999999  0.6666666666666666
  0.7500000000000001  0.4999999999999999  0.7777777777777778
  0.8750000000000000  0.4999999999999999  0.8333333333333334
  0.8750000000000000  0.4999999999999999  0.9444444444444444
  0.7500000000000001  0.4999999999999999  0.0000000000000000
  0.5000000000000000  0.4999999999999999  0.1111111111111111
  0.6250000000000000  0.4999999999999999  0.1666666666666667
  0.6250000000000000  0.4999999999999999  0.2777777777777778
  0.5000000000000000  0.4999999999999999  0.3333333333333333
  0.5000000000000000  0.4999999999999999  0.4444444444444445
  0.6250000000000000  0.4999999999999999  0.5000000000000000
  0.6250000000000000  0.4999999999999999  0.6111111111111112
  0.5000000000000000  0.4999999999999999  0.6666666666666666
  0.5000000000000000  0.4999999999999999  0.7777777777777778
  0.6250000000000000  0.4999999999999999  0.8333333333333334
  0.6250000000000000  0.4999999999999999  0.9444444444444444
  0.5000000000000000  0.4999999999999999  0.0000000000000000
  0.2500000000000000  0.4999999999999999  0.1111111111111111
  0.3749999999999999  0.4999999999999999  0.1666666666666667
  0.3749999999999999  0.4999999999999999  0.2777777777777778
  0.2500000000000000  0.4999999999999999  0.3333333333333333
  0.2500000000000000  0.4999999999999999  0.4444444444444445
  0.3749999999999999  0.4999999999999999  0.5000000000000000
  0.3749999999999999  0.4999999999999999  0.6111111111111112
  0.2500000000000000  0.4999999999999999  0.6666666666666666
  0.2500000000000000  0.4999999999999999  0.7777777777777778
  0.3749999999999999  0.4999999999999999  0.8333333333333334
  0.3749999999999999  0.4999999999999999  0.9444444444444444
  0.2500000000000000  0.4999999999999999  0.0000000000000000
