 C 
 1.0000000000000000
    12.1487803668695129    0.0000000000000000    0.0000000000000000
     0.0000000000000000    6.0000000000000000    0.0000000000000000
     0.0000000000000000    0.0000000000000000   17.0399999999999991
   C
  48
Direct
  0.6518369790511059  0.5000000000000000  0.0000000000000000
  0.7530616317518433  0.5000000000000000  0.0416666666666667
  0.7530616317518433  0.5000000000000000  0.1250000000000000
  0.6518369790511059  0.5000000000000000  0.1666666666666667
  0.6518369790511059  0.5000000000000000  0.2500000000000000
  0.7530616317518433  0.5000000000000000  0.2916666666666666
  0.7530616317518433  0.5000000000000000  0.3750000000000000
  0.6518369790511059  0.5000000000000000  0.4166666666666666
  0.6518369790511059  0.5000000000000000  0.5000000000000000
  0.7530616317518433  0.5000000000000000  0.5416666666666667
  0.7530616317518433  0.5000000000000000  0.6249999999999999
  0.6518369790511059  0.5000000000000000  0.6666666666666666
  0.6518369790511059  0.5000000000000000  0.7500000000000000
  0.7530616317518433  0.5000000000000000  0.7916666666666666
  0.7530616317518433  0.5000000000000000  0.8750000000000000
  0.6518369790511059  0.5000000000000000  0.9166666666666666
  0.4493876736496313  0.5000000000000000  0.0000000000000000
  0.5506123263503686  0.5000000000000000  0.0416666666666667
  0.5506123263503686  0.5000000000000000  0.1250000000000000
  0.4493876736496313  0.5000000000000000  0.1666666666666667
  0.4493876736496313  0.5000000000000000  0.2500000000000000
  0.5506123263503686  0.5000000000000000  0.2916666666666666
  0.5506123263503686  0.5000000000000000  0.3750000000000000
  0.4493876736496313  0.5000000000000000  0.4166666666666666
  0.4493876736496313  0.5000000000000000  0.5000000000000000
  0.5506123263503686  0.5000000000000000  0.5416666666666667
  0.5506123263503686  0.5000000000000000  0.6249999999999999
  0.4493876736496313  0.5000000000000000  0.6666666666666666
  0.4493876736496313  0.5000000000000000  0.7500000000000000
  0.5506123263503686  0.5000000000000000  0.7916666666666666
  0.5506123263503686  0.5000000000000000  0.8750000000000000
  0.4493876736496313  0.5000000000000000  0.9166666666666666
  0.2469383682481567  0.5000000000000000  0.0000000000000000
  0.3481630209488940  0.5000000000000000  0.0416666666666667
  0.3481630209488940  0.5000000000000000  0.1250000000000000
  0.2469383682481567  0.5000000000000000  0.1666666666666667
  0.2469383682481567  0.5000000000000000  0.2500000000000000
  0.3481630209488940  0.5000000000000000  0.2916666666666666
  0.3481630209488940  0.5000000000000000  0.3750000000000000
  0.2469383682481567  0.5000000000000000  0.4166666666666666
  0.2469383682481567  0.5000000000000000  0.5000000000000000
  0.3481630209488940  0.5000000000000000  0.5416666666666667
  0.3481630209488940  0.5000000000000000  0.6249999999999999
  0.2469383682481567  0.5000000000000000  0.6666666666666666
  0.2469383682481567  0.5000000000000000  0.7500000000000000
  0.3481630209488940  0.5000000000000000  0.7916666666666666
  0.3481630209488940  0.5000000000000000  0.8750000000000000
  0.2469383682481567  0.5000000000000000  0.9166666666666666
