 C  O Si 
 1.0000000000000000
    51.6497550817039155    0.0000000000000000    0.0000000000000000
     0.0000000000000000   51.1199999999999974    0.0000000000000000
     0.0000000000000000    0.0000000000000000  100.5000000000000000
 C   O   Si 
 24192 3024 3024
Direct
  0.0000000000000000  0.0000000000000000  0.0083333333333333
  0.5238095238095237  0.7500000000000000  0.5416666666666666
  0.0714285714285714  0.7916666666666667  0.5416666666666666
  0.8571428571428572  0.9722222222222221  0.5416666666666666
  0.6428571428571430  0.6249999999999999  0.5416666666666666
  0.6190476190476191  0.6388888888888888  0.5416666666666666
  0.1190476190476191  0.6527777777777777  0.5083333333333333
  0.2857142857142857  0.6666666666666665  0.5083333333333333
  0.7619047619047619  0.9999999999999999  0.5083333333333333
  0.9761904761904763  0.1250000000000000  0.5083333333333333
  0.9523809523809524  0.1111111111111111  0.5083333333333333
  0.3095238095238095  0.6527777777777777  0.5083333333333333
  0.8095238095238095  0.7777777777777778  0.5083333333333333
  0.4761904761904762  0.3333333333333333  0.5083333333333333
  0.1428571428571428  0.3611111111111112  0.5083333333333333
  0.0952380952380952  0.6666666666666665  0.5083333333333333
  0.4999999999999999  0.3194444444444444  0.5083333333333333
  0.1666666666666667  0.3750000000000000  0.5083333333333333
  0.0952380952380952  0.6111111111111110  0.5083333333333333
  0.1190476190476191  0.6249999999999999  0.5083333333333333
  0.6428571428571430  0.7638888888888888  0.5416666666666666
  0.6190476190476191  0.7500000000000000  0.5416666666666666
  0.5952380952380952  0.5138888888888890  0.5416666666666666
  0.5476190476190476  0.7083333333333334  0.5416666666666666
  0.5714285714285714  0.5000000000000000  0.5416666666666666
  0.8809523809523810  0.9583333333333333  0.5416666666666666
  0.6190476190476191  0.5833333333333333  0.5416666666666666
  0.5714285714285714  0.7500000000000000  0.5416666666666666
  0.6428571428571430  0.5972222222222221  0.5416666666666666
  0.5952380952380952  0.7638888888888888  0.5416666666666666
  0.5714285714285714  0.5555555555555556  0.5416666666666666
  0.5952380952380952  0.5416666666666666  0.5416666666666666
  0.5714285714285714  0.8055555555555555  0.5416666666666666
  0.4761904761904762  0.2777777777777778  0.5083333333333333
  0.5476190476190476  0.4305555555555555  0.5416666666666666
  0.1190476190476191  0.0972222222222222  0.5416666666666666
  0.5714285714285714  0.3333333333333333  0.5416666666666666
  0.0476190476190476  0.8055555555555555  0.5416666666666666
  0.5238095238095237  0.4722222222222222  0.5416666666666666
  0.5476190476190476  0.4583333333333333  0.5416666666666666
  0.6190476190476191  0.8055555555555555  0.5416666666666666
  0.6428571428571430  0.7916666666666667  0.5416666666666666
  0.5238095238095237  0.7222222222222223  0.5416666666666666
  0.0952380952380952  0.0833333333333333  0.5416666666666666
  0.5952380952380952  0.0972222222222222  0.5416666666666666
  0.9047619047619047  0.0000000000000000  0.5416666666666666
  0.1428571428571428  0.4166666666666666  0.5083333333333333
  0.3095238095238095  0.9861111111111109  0.5083333333333333
  0.2380952380952381  0.4166666666666666  0.5083333333333333
  0.0714285714285714  0.3750000000000000  0.5083333333333333
  0.7619047619047619  0.9444444444444444  0.5083333333333333
  0.8333333333333335  0.7916666666666667  0.5083333333333333
  0.8333333333333335  0.8194444444444444  0.5083333333333333
  0.8095238095238095  0.8333333333333333  0.5083333333333333
  0.5952380952380952  0.7361111111111110  0.5083333333333333
  0.5714285714285714  0.7500000000000000  0.5083333333333333
  0.8571428571428572  0.7500000000000000  0.5083333333333333
  0.8809523809523810  0.7361111111111110  0.5083333333333333
  0.3809523809523809  0.1111111111111111  0.5083333333333333
  0.4047619047619047  0.1250000000000000  0.5083333333333333
  0.4047619047619047  0.1527777777777778  0.5083333333333333
  0.3809523809523809  0.1666666666666667  0.5083333333333333
  0.1190476190476191  0.1527777777777778  0.5083333333333333
  0.0476190476190476  0.4166666666666666  0.5083333333333333
  0.0714285714285714  0.4027777777777778  0.5083333333333333
  0.5714285714285714  0.7777777777777778  0.5083333333333333
  0.5952380952380952  0.7083333333333334  0.5083333333333333
  0.2619047619047619  0.4027777777777778  0.5083333333333333
  0.9761904761904763  0.5416666666666666  0.5083333333333333
  0.0476190476190476  0.2777777777777778  0.5083333333333333
  0.3809523809523809  0.4444444444444445  0.5083333333333333
  0.2857142857142857  0.9999999999999999  0.5083333333333333
  0.1666666666666667  0.4027777777777778  0.5083333333333333
  0.4999999999999999  0.2916666666666667  0.5083333333333333
  0.2857142857142857  0.9444444444444444  0.5083333333333333
  0.7857142857142857  0.9861111111111109  0.5083333333333333
  0.0000000000000000  0.9166666666666666  0.5083333333333333
  0.9523809523809524  0.5277777777777778  0.5083333333333333
  0.2619047619047619  0.3750000000000000  0.5083333333333333
  0.2380952380952381  0.3611111111111112  0.5083333333333333
  0.3095238095238095  0.9583333333333333  0.5083333333333333
  0.6666666666666666  0.5833333333333334  0.5083333333333333
  0.6904761904761905  0.5416666666666666  0.5083333333333333
  0.6666666666666666  0.5277777777777778  0.5083333333333333
  0.0238095238095238  0.9027777777777777  0.5083333333333333
  0.7857142857142857  0.9583333333333333  0.5083333333333333
  0.0238095238095238  0.8750000000000000  0.5083333333333333
  0.0000000000000000  0.8611111111111110  0.5083333333333333
  0.3809523809523809  0.4999999999999999  0.5083333333333333
  0.4047619047619047  0.4861111111111111  0.5083333333333333
  0.4047619047619047  0.4583333333333333  0.5083333333333333
  0.6904761904761905  0.5694444444444444  0.5083333333333333
  0.5476190476190476  0.6805555555555556  0.5416666666666666
  0.5238095238095237  0.6666666666666666  0.5416666666666666
  0.0476190476190476  0.7500000000000000  0.5416666666666666
  0.0714285714285714  0.6249999999999999  0.5416666666666666
  0.6190476190476191  0.2222222222222222  0.5416666666666666
  0.0476190476190476  0.5000000000000000  0.5416666666666666
  0.6428571428571430  0.2083333333333333  0.5416666666666666
  0.6428571428571430  0.1805555555555556  0.5416666666666666
  0.6190476190476191  0.1666666666666667  0.5416666666666666
  0.0476190476190476  0.5555555555555556  0.5416666666666666
  0.0952380952380952  0.2222222222222222  0.5416666666666666
  0.1190476190476191  0.2083333333333333  0.5416666666666666
  0.1190476190476191  0.1805555555555556  0.5416666666666666
  0.0952380952380952  0.1666666666666667  0.5416666666666666
  0.5952380952380952  0.4305555555555555  0.5416666666666666
  0.5714285714285714  0.4166666666666666  0.5416666666666666
  0.6190476190476191  0.7222222222222223  0.5416666666666666
  0.6428571428571430  0.7083333333333334  0.5416666666666666
  0.6428571428571430  0.6805555555555556  0.5416666666666666
  0.6190476190476191  0.6666666666666666  0.5416666666666666
  0.0714285714285714  0.5138888888888890  0.5416666666666666
  0.6190476190476191  0.1388888888888889  0.5416666666666666
  0.5238095238095237  0.9166666666666666  0.5416666666666666
  0.5952380952380952  0.4583333333333333  0.5416666666666666
  0.5714285714285714  0.4722222222222222  0.5416666666666666
  0.0476190476190476  0.7222222222222223  0.5416666666666666
  0.6190476190476191  0.3055555555555556  0.5416666666666666
  0.5714285714285714  0.2222222222222222  0.5416666666666666
  0.5952380952380952  0.2083333333333333  0.5416666666666666
  0.5952380952380952  0.1805555555555556  0.5416666666666666
  0.5714285714285714  0.1666666666666667  0.5416666666666666
  0.0714285714285714  0.9583333333333333  0.5416666666666666
  0.0476190476190476  0.9722222222222221  0.5416666666666666
  0.6428571428571430  0.0416666666666667  0.5416666666666666
  0.6428571428571430  0.0138888888888889  0.5416666666666666
  0.5952380952380952  0.2638888888888889  0.5416666666666666
  0.6190476190476191  0.0000000000000000  0.5416666666666666
  0.0714285714285714  0.5416666666666666  0.5416666666666666
  0.6190476190476191  0.4166666666666666  0.5416666666666666
  0.6428571428571430  0.4305555555555555  0.5416666666666666
  0.6428571428571430  0.4583333333333333  0.5416666666666666
  0.6190476190476191  0.4722222222222222  0.5416666666666666
  0.5238095238095237  0.9722222222222221  0.5416666666666666
  0.5476190476190476  0.9583333333333333  0.5416666666666666
  0.5476190476190476  0.9305555555555555  0.5416666666666666
  0.0714285714285714  0.7083333333333334  0.5416666666666666
  0.0476190476190476  0.6388888888888888  0.5416666666666666
  0.1190476190476191  0.3472222222222223  0.5416666666666666
  0.5952380952380952  0.2916666666666667  0.5416666666666666
  0.5714285714285714  0.3055555555555556  0.5416666666666666
  0.0714285714285714  0.6805555555555556  0.5416666666666666
  0.8809523809523810  0.8472222222222222  0.5416666666666666
  0.8571428571428572  0.8333333333333333  0.5416666666666666
  0.6428571428571430  0.0972222222222222  0.5416666666666666
  0.5714285714285714  0.3888888888888889  0.5416666666666666
  0.6190476190476191  0.5555555555555556  0.5416666666666666
  0.5952380952380952  0.3472222222222223  0.5416666666666666
  0.5238095238095237  0.4166666666666666  0.5416666666666666
  0.1190476190476191  0.1250000000000000  0.5416666666666666
  0.0476190476190476  0.6666666666666666  0.5416666666666666
  0.0952380952380952  0.1388888888888889  0.5416666666666666
  0.5714285714285714  0.0833333333333333  0.5416666666666666
  0.5952380952380952  0.7916666666666667  0.5416666666666666
  0.5952380952380952  0.1250000000000000  0.5416666666666666
  0.5714285714285714  0.1388888888888889  0.5416666666666666
  0.5476190476190476  0.7916666666666667  0.5416666666666666
  0.5952380952380952  0.8472222222222222  0.5416666666666666
  0.5714285714285714  0.8333333333333333  0.5416666666666666
  0.5238095238095237  0.8055555555555555  0.5416666666666666
  0.0714285714285714  0.7638888888888888  0.5416666666666666
  0.5476190476190476  0.7638888888888888  0.5416666666666666
  0.5952380952380952  0.7916666666666667  0.5083333333333333
  0.5238095238095237  0.5833333333333333  0.5416666666666666
  0.5476190476190476  0.6249999999999999  0.5416666666666666
  0.8571428571428572  0.8888888888888890  0.5416666666666666
  0.5714285714285714  0.9166666666666666  0.5416666666666666
  0.5238095238095237  0.8333333333333333  0.5416666666666666
  0.5476190476190476  0.8472222222222222  0.5416666666666666
  0.5952380952380952  0.9305555555555555  0.5416666666666666
  0.5952380952380952  0.9583333333333333  0.5416666666666666
  0.5714285714285714  0.9722222222222221  0.5416666666666666
  0.5476190476190476  0.8750000000000000  0.5416666666666666
  0.5238095238095237  0.8888888888888890  0.5416666666666666
  0.5476190476190476  0.5972222222222221  0.5416666666666666
  0.5714285714285714  0.7222222222222223  0.5416666666666666
  0.0952380952380952  0.3333333333333333  0.5416666666666666
  0.1190476190476191  0.3750000000000000  0.5416666666666666
  0.6428571428571430  0.1250000000000000  0.5416666666666666
  0.0952380952380952  0.3888888888888889  0.5416666666666666
  0.5952380952380952  0.6805555555555556  0.5416666666666666
  0.5714285714285714  0.6666666666666666  0.5416666666666666
  0.8809523809523810  0.8750000000000000  0.5416666666666666
  0.6190476190476191  0.0833333333333333  0.5416666666666666
  0.5238095238095237  0.6388888888888888  0.5416666666666666
  0.5952380952380952  0.7083333333333334  0.5416666666666666
  0.0714285714285714  0.9305555555555555  0.5416666666666666
  0.8571428571428572  0.3333333333333333  0.5083333333333333
  0.4047619047619047  0.6249999999999999  0.5083333333333333
  0.4761904761904762  0.5833333333333334  0.5083333333333333
  0.6190476190476191  0.3611111111111112  0.5083333333333333
  0.6428571428571430  0.3750000000000000  0.5083333333333333
  0.3095238095238095  0.9027777777777777  0.5083333333333333
  0.2857142857142857  0.9166666666666666  0.5083333333333333
  0.4761904761904762  0.5277777777777778  0.5083333333333333
  0.4999999999999999  0.5416666666666666  0.5083333333333333
  0.4999999999999999  0.5694444444444444  0.5083333333333333
  0.7857142857142857  0.8194444444444444  0.5083333333333333
  0.7380952380952382  0.9027777777777777  0.5083333333333333
  0.7619047619047619  0.8333333333333333  0.5083333333333333
  0.5952380952380952  0.4027777777777778  0.5083333333333333
  0.5714285714285714  0.4166666666666666  0.5083333333333333
  0.6190476190476191  0.4166666666666666  0.5083333333333333
  0.6428571428571430  0.4027777777777778  0.5083333333333333
  0.8571428571428572  0.6944444444444445  0.5083333333333333
  0.8809523809523810  0.7083333333333334  0.5083333333333333
  0.7142857142857142  0.9166666666666666  0.5083333333333333
  0.7380952380952382  0.8750000000000000  0.5083333333333333
  0.0238095238095238  0.1250000000000000  0.5083333333333333
  0.0238095238095238  0.1527777777777778  0.5083333333333333
  0.0000000000000000  0.1666666666666667  0.5083333333333333
  0.7857142857142857  0.8750000000000000  0.5083333333333333
  0.0714285714285714  0.9027777777777777  0.5083333333333333
  0.1428571428571428  0.9999999999999999  0.5083333333333333
  0.9047619047619047  0.4166666666666666  0.5083333333333333
  0.9285714285714285  0.4027777777777778  0.5083333333333333
  0.4999999999999999  0.4583333333333333  0.5083333333333333
  0.7857142857142857  0.7916666666666667  0.5083333333333333
  0.3809523809523809  0.1944444444444444  0.5083333333333333
  0.4047619047619047  0.2083333333333333  0.5083333333333333
  0.9047619047619047  0.1111111111111111  0.5083333333333333
  0.0000000000000000  0.1111111111111111  0.5083333333333333
  0.7619047619047619  0.9166666666666666  0.5083333333333333
  0.4761904761904762  0.4444444444444445  0.5083333333333333
  0.9285714285714285  0.1250000000000000  0.5083333333333333
  0.7619047619047619  0.8611111111111110  0.5083333333333333
  0.9285714285714285  0.1527777777777778  0.5083333333333333
  0.4999999999999999  0.4861111111111111  0.5083333333333333
  0.4761904761904762  0.4999999999999999  0.5083333333333333
  0.8333333333333335  0.8750000000000000  0.5083333333333333
  0.8333333333333335  0.9027777777777777  0.5083333333333333
  0.8095238095238095  0.9166666666666666  0.5083333333333333
  0.7857142857142857  0.9027777777777777  0.5083333333333333
  0.0476190476190476  0.9166666666666666  0.5083333333333333
  0.5952380952380952  0.0416666666666667  0.5083333333333333
  0.3095238095238095  0.8750000000000000  0.5083333333333333
  0.7142857142857142  0.7777777777777778  0.5083333333333333
  0.7380952380952382  0.7916666666666667  0.5083333333333333
  0.7380952380952382  0.8194444444444444  0.5083333333333333
  0.4999999999999999  0.6249999999999999  0.5083333333333333
  0.4761904761904762  0.6111111111111110  0.5083333333333333
  0.7142857142857142  0.8333333333333333  0.5083333333333333
  0.5476190476190476  0.5416666666666666  0.5083333333333333
  0.5238095238095237  0.5277777777777778  0.5083333333333333
  0.0000000000000000  0.4444444444444445  0.5083333333333333
  0.0238095238095238  0.4583333333333333  0.5083333333333333
  0.0238095238095238  0.4861111111111111  0.5083333333333333
  0.1666666666666667  0.9861111111111109  0.5083333333333333
  0.1666666666666667  0.9583333333333333  0.5083333333333333
  0.1428571428571428  0.9444444444444444  0.5083333333333333
  0.2857142857142857  0.6944444444444445  0.5083333333333333
  0.0238095238095238  0.7916666666666667  0.5083333333333333
  0.0238095238095238  0.8194444444444444  0.5083333333333333
  0.0000000000000000  0.8333333333333333  0.5083333333333333
  0.5714285714285714  0.9999999999999999  0.5083333333333333
  0.4999999999999999  0.6527777777777777  0.5083333333333333
  0.9285714285714285  0.3750000000000000  0.5083333333333333
  0.9047619047619047  0.3611111111111112  0.5083333333333333
  0.5476190476190476  0.5694444444444444  0.5083333333333333
  0.1428571428571428  0.4444444444444445  0.5083333333333333
  0.1666666666666667  0.4583333333333333  0.5083333333333333
  0.1666666666666667  0.4861111111111111  0.5083333333333333
  0.1428571428571428  0.4999999999999999  0.5083333333333333
  0.5714285714285714  0.0277777777777778  0.5083333333333333
  0.5952380952380952  0.0694444444444444  0.5083333333333333
  0.7142857142857142  0.8611111111111110  0.5083333333333333
  0.5714285714285714  0.0833333333333333  0.5083333333333333
  0.0714285714285714  0.8750000000000000  0.5083333333333333
  0.2857142857142857  0.8611111111111110  0.5083333333333333
  0.0476190476190476  0.8611111111111110  0.5083333333333333
  0.2619047619047619  0.2361111111111111  0.5083333333333333
  0.2619047619047619  0.2083333333333333  0.5083333333333333
  0.2380952380952381  0.1944444444444444  0.5083333333333333
  0.7619047619047619  0.7777777777777778  0.5083333333333333
  0.5714285714285714  0.3611111111111112  0.5083333333333333
  0.0000000000000000  0.7777777777777778  0.5083333333333333
  0.1904761904761905  0.5277777777777778  0.5083333333333333
  0.4761904761904762  0.6666666666666665  0.5083333333333333
  0.5238095238095237  0.5833333333333334  0.5083333333333333
  0.2380952380952381  0.2500000000000000  0.5083333333333333
  0.6666666666666666  0.4166666666666666  0.5083333333333333
  0.6904761904761905  0.4027777777777778  0.5083333333333333
  0.6904761904761905  0.3750000000000000  0.5083333333333333
  0.6904761904761905  0.6249999999999999  0.5083333333333333
  0.6666666666666666  0.6111111111111110  0.5083333333333333
  0.3095238095238095  0.5694444444444444  0.5083333333333333
  0.5476190476190476  0.9583333333333333  0.5083333333333333
  0.2857142857142857  0.5833333333333334  0.5083333333333333
  0.8095238095238095  0.0277777777777778  0.5083333333333333
  0.0952380952380952  0.8333333333333333  0.5083333333333333
  0.1190476190476191  0.8194444444444444  0.5083333333333333
  0.1190476190476191  0.7916666666666667  0.5083333333333333
  0.0952380952380952  0.7777777777777778  0.5083333333333333
  0.5238095238095237  0.9444444444444444  0.5083333333333333
  0.7857142857142857  0.0416666666666667  0.5083333333333333
  0.4761904761904762  0.7500000000000000  0.5083333333333333
  0.4999999999999999  0.7361111111111110  0.5083333333333333
  0.0714285714285714  0.3194444444444444  0.5083333333333333
  0.6190476190476191  0.4999999999999999  0.5083333333333333
  0.6428571428571430  0.4861111111111111  0.5083333333333333
  0.2142857142857143  0.4861111111111111  0.5083333333333333
  0.1904761904761905  0.4999999999999999  0.5083333333333333
  0.6904761904761905  0.6527777777777777  0.5083333333333333
  0.6666666666666666  0.6666666666666665  0.5083333333333333
  0.2857142857142857  0.5277777777777778  0.5083333333333333
  0.7142857142857142  0.6666666666666665  0.5083333333333333
  0.8095238095238095  0.6944444444444445  0.5083333333333333
  0.6190476190476191  0.8333333333333333  0.5083333333333333
  0.6428571428571430  0.8194444444444444  0.5083333333333333
  0.6428571428571430  0.7916666666666667  0.5083333333333333
  0.6190476190476191  0.7777777777777778  0.5083333333333333
  0.8333333333333335  0.7083333333333334  0.5083333333333333
  0.3809523809523809  0.6111111111111110  0.5083333333333333
  0.1904761904761905  0.0833333333333333  0.5083333333333333
  0.2142857142857143  0.0694444444444444  0.5083333333333333
  0.6428571428571430  0.4583333333333333  0.5083333333333333
  0.2142857142857143  0.0416666666666667  0.5083333333333333
  0.4999999999999999  0.2083333333333333  0.5083333333333333
  0.4999999999999999  0.2361111111111111  0.5083333333333333
  0.7857142857142857  0.0694444444444444  0.5083333333333333
  0.4761904761904762  0.2500000000000000  0.5083333333333333
  0.3809523809523809  0.6666666666666665  0.5083333333333333
  0.5238095238095237  0.9999999999999999  0.5083333333333333
  0.5476190476190476  0.9861111111111109  0.5083333333333333
  0.3095238095238095  0.5416666666666666  0.5083333333333333
  0.6190476190476191  0.7500000000000000  0.5083333333333333
  0.4761904761904762  0.1944444444444444  0.5083333333333333
  0.6190476190476191  0.4444444444444445  0.5083333333333333
  0.5714285714285714  0.6944444444444445  0.5083333333333333
  0.3809523809523809  0.5833333333333334  0.5083333333333333
  0.7380952380952382  0.7083333333333334  0.5083333333333333
  0.7380952380952382  0.7361111111111110  0.5083333333333333
  0.7142857142857142  0.7500000000000000  0.5083333333333333
  0.5714285714285714  0.8333333333333333  0.5083333333333333
  0.0714285714285714  0.2916666666666667  0.5083333333333333
  0.2857142857142857  0.7500000000000000  0.5083333333333333
  0.0476190476190476  0.3611111111111112  0.5083333333333333
  0.5952380952380952  0.3750000000000000  0.5083333333333333
  0.2380952380952381  0.3333333333333333  0.5083333333333333
  0.7142857142857142  0.6944444444444445  0.5083333333333333
  0.2619047619047619  0.3194444444444444  0.5083333333333333
  0.2380952380952381  0.2777777777777778  0.5083333333333333
  0.3809523809523809  0.3333333333333333  0.5083333333333333
  0.4047619047619047  0.3194444444444444  0.5083333333333333
  0.4047619047619047  0.2916666666666667  0.5083333333333333
  0.3809523809523809  0.2777777777777778  0.5083333333333333
  0.9047619047619047  0.1666666666666667  0.5083333333333333
  0.4047619047619047  0.2361111111111111  0.5083333333333333
  0.3809523809523809  0.2500000000000000  0.5083333333333333
  0.6666666666666666  0.3611111111111112  0.5083333333333333
  0.2619047619047619  0.2916666666666667  0.5083333333333333
  0.4047619047619047  0.6527777777777777  0.5083333333333333
  0.2380952380952381  0.1666666666666667  0.5083333333333333
  0.1904761904761905  0.4444444444444445  0.5083333333333333
  0.5952380952380952  0.8194444444444444  0.5083333333333333
  0.4047619047619047  0.5694444444444444  0.5083333333333333
  0.4047619047619047  0.5416666666666666  0.5083333333333333
  0.9047619047619047  0.6944444444444445  0.5083333333333333
  0.9285714285714285  0.7083333333333334  0.5083333333333333
  0.3809523809523809  0.5277777777777778  0.5083333333333333
  0.2857142857142857  0.6111111111111110  0.5083333333333333
  0.3095238095238095  0.6249999999999999  0.5083333333333333
  0.8809523809523810  0.3194444444444444  0.5083333333333333
  0.2619047619047619  0.1527777777777778  0.5083333333333333
  0.2142857142857143  0.4583333333333333  0.5083333333333333
  0.2619047619047619  0.4583333333333333  0.5083333333333333
  0.4761904761904762  0.6944444444444445  0.5083333333333333
  0.7619047619047619  0.0277777777777778  0.5083333333333333
  0.8333333333333335  0.7361111111111110  0.5083333333333333
  0.8095238095238095  0.7500000000000000  0.5083333333333333
  0.1904761904761905  0.0277777777777778  0.5083333333333333
  0.2380952380952381  0.4999999999999999  0.5083333333333333
  0.2619047619047619  0.4861111111111111  0.5083333333333333
  0.2380952380952381  0.4444444444444445  0.5083333333333333
  0.4999999999999999  0.7083333333333334  0.5083333333333333
  0.5952380952380952  0.9861111111111109  0.5083333333333333
  0.0476190476190476  0.9166666666666666  0.5416666666666666
  0.9523809523809524  0.1388888888888889  0.5416666666666666
  0.2857142857142857  0.1388888888888889  0.5416666666666666
  0.3095238095238095  0.1250000000000000  0.5416666666666666
  0.3095238095238095  0.0972222222222222  0.5416666666666666
  0.2857142857142857  0.0833333333333333  0.5416666666666666
  0.7142857142857142  0.2222222222222222  0.5416666666666666
  0.7380952380952382  0.2083333333333333  0.5416666666666666
  0.7380952380952382  0.1805555555555556  0.5416666666666666
  0.7142857142857142  0.1666666666666667  0.5416666666666666
  0.4285714285714286  0.3333333333333333  0.5416666666666666
  0.4523809523809524  0.3472222222222223  0.5416666666666666
  0.4523809523809524  0.3750000000000000  0.5416666666666666
  0.9523809523809524  0.9722222222222221  0.5416666666666666
  0.9761904761904763  0.9583333333333333  0.5416666666666666
  0.8571428571428572  0.5833333333333333  0.5416666666666666
  0.6904761904761905  0.9583333333333333  0.5416666666666666
  0.6666666666666666  0.9166666666666666  0.5416666666666666
  0.4285714285714286  0.6666666666666666  0.5416666666666666
  0.4523809523809524  0.6805555555555556  0.5416666666666666
  0.4523809523809524  0.7083333333333334  0.5416666666666666
  0.9285714285714285  0.5972222222222221  0.5416666666666666
  0.9047619047619047  0.5833333333333333  0.5416666666666666
  0.9761904761904763  0.7638888888888888  0.5416666666666666
  0.9523809523809524  0.7500000000000000  0.5416666666666666
  0.4523809523809524  0.5416666666666666  0.5416666666666666
  0.4285714285714286  0.5555555555555556  0.5416666666666666
  0.8571428571428572  0.3888888888888889  0.5416666666666666
  0.8809523809523810  0.3750000000000000  0.5416666666666666
  0.2142857142857143  0.2083333333333333  0.5416666666666666
  0.2142857142857143  0.1805555555555556  0.5416666666666666
  0.1904761904761905  0.1666666666666667  0.5416666666666666
  0.4285714285714286  0.3888888888888889  0.5416666666666666
  0.2857142857142857  0.2222222222222222  0.5416666666666666
  0.4285714285714286  0.7222222222222223  0.5416666666666666
  0.3095238095238095  0.2083333333333333  0.5416666666666666
  0.2857142857142857  0.1666666666666667  0.5416666666666666
  0.1428571428571428  0.1388888888888889  0.5416666666666666
  0.1666666666666667  0.1250000000000000  0.5416666666666666
  0.1666666666666667  0.0972222222222222  0.5416666666666666
  0.1428571428571428  0.0833333333333333  0.5416666666666666
  0.4285714285714286  0.2500000000000000  0.5416666666666666
  0.4523809523809524  0.2638888888888889  0.5416666666666666
  0.4523809523809524  0.2916666666666667  0.5416666666666666
  0.4285714285714286  0.3055555555555556  0.5416666666666666
  0.3095238095238095  0.1805555555555556  0.5416666666666666
  0.4523809523809524  0.5138888888888890  0.5416666666666666
  0.2380952380952381  0.8888888888888890  0.5416666666666666
  0.0476190476190476  0.0833333333333333  0.5416666666666666
  0.8571428571428572  0.6388888888888888  0.5416666666666666
  0.8809523809523810  0.3472222222222223  0.5416666666666666
  0.8571428571428572  0.3333333333333333  0.5416666666666666
  0.2857142857142857  0.0555555555555556  0.5416666666666666
  0.3095238095238095  0.0416666666666667  0.5416666666666666
  0.3095238095238095  0.0138888888888889  0.5416666666666666
  0.2857142857142857  0.0000000000000000  0.5416666666666666
  0.8095238095238095  0.3333333333333333  0.5416666666666666
  0.8333333333333335  0.3472222222222223  0.5416666666666666
  0.8333333333333335  0.3750000000000000  0.5416666666666666
  0.8095238095238095  0.3888888888888889  0.5416666666666666
  0.7142857142857142  0.0555555555555556  0.5416666666666666
  0.7380952380952382  0.0416666666666667  0.5416666666666666
  0.0000000000000000  0.3055555555555556  0.5416666666666666
  0.0238095238095238  0.2916666666666667  0.5416666666666666
  0.7380952380952382  0.0138888888888889  0.5416666666666666
  0.7142857142857142  0.0000000000000000  0.5416666666666666
  0.4285714285714286  0.5833333333333333  0.5416666666666666
  0.4523809523809524  0.5972222222222221  0.5416666666666666
  0.8809523809523810  0.6249999999999999  0.5416666666666666
  0.2380952380952381  0.9166666666666666  0.5416666666666666
  0.8809523809523810  0.5972222222222221  0.5416666666666666
  0.6666666666666666  0.9722222222222221  0.5416666666666666
  0.0714285714285714  0.0972222222222222  0.5416666666666666
  0.0714285714285714  0.1250000000000000  0.5416666666666666
  0.0476190476190476  0.1388888888888889  0.5416666666666666
  0.2619047619047619  0.8472222222222222  0.5416666666666666
  0.2380952380952381  0.8333333333333333  0.5416666666666666
  0.1904761904761905  0.2500000000000000  0.5416666666666666
  0.2142857142857143  0.2638888888888889  0.5416666666666666
  0.2142857142857143  0.2916666666666667  0.5416666666666666
  0.1904761904761905  0.3055555555555556  0.5416666666666666
  0.2619047619047619  0.8750000000000000  0.5416666666666666
  0.8095238095238095  0.4166666666666666  0.5416666666666666
  0.8333333333333335  0.4583333333333333  0.5416666666666666
  0.8095238095238095  0.4722222222222222  0.5416666666666666
  0.0952380952380952  0.9722222222222221  0.5416666666666666
  0.1190476190476191  0.9583333333333333  0.5416666666666666
  0.1190476190476191  0.9305555555555555  0.5416666666666666
  0.0952380952380952  0.9166666666666666  0.5416666666666666
  0.4285714285714286  0.7500000000000000  0.5416666666666666
  0.4523809523809524  0.7638888888888888  0.5416666666666666
  0.6904761904761905  0.9305555555555555  0.5416666666666666
  0.8333333333333335  0.4305555555555555  0.5416666666666666
  0.4285714285714286  0.5000000000000000  0.5416666666666666
  0.1428571428571428  0.0000000000000000  0.5416666666666666
  0.1666666666666667  0.0138888888888889  0.5416666666666666
  0.8571428571428572  0.4722222222222222  0.5416666666666666
  0.8809523809523810  0.4583333333333333  0.5416666666666666
  0.8809523809523810  0.4305555555555555  0.5416666666666666
  0.8571428571428572  0.4166666666666666  0.5416666666666666
  0.3333333333333333  0.3055555555555556  0.5416666666666666
  0.3571428571428571  0.2916666666666667  0.5416666666666666
  0.3571428571428571  0.2638888888888889  0.5416666666666666
  0.3333333333333333  0.2500000000000000  0.5416666666666666
  0.7142857142857142  0.9722222222222221  0.5416666666666666
  0.7380952380952382  0.9583333333333333  0.5416666666666666
  0.7380952380952382  0.9305555555555555  0.5416666666666666
  0.7142857142857142  0.9166666666666666  0.5416666666666666
  0.7619047619047619  0.0000000000000000  0.5416666666666666
  0.7857142857142857  0.0416666666666667  0.5416666666666666